! B3LYP def2-SVP OPT TightSCF D3BJ

%pal
nprocs 20
end

* xyz 0 1
O         -2.27348        7.87686       -0.00014
O         -2.27346        5.71038       -0.00041
N         -2.84417        6.79360       -0.00015
N         -8.46908        6.79363        0.00129
C         -4.30401        6.79362        0.00010
C         -7.10492        6.79362        0.00045
C         -4.99421        8.00982        0.00035
C         -4.99421        5.57742        0.00001
C         -6.38039        8.00998        0.00051
C         -6.38039        5.57726        0.00018
H         -4.42543        8.93920        0.00036
H         -4.42542        4.64804       -0.00022
H         -6.92362        8.95844        0.00074
H         -6.92363        4.62881        0.00014
H         -8.98867        7.65909       -0.00303
H         -8.98868        5.92818       -0.00326
O         -8.67638        6.68503        1.47785
H         -7.72412        6.52408        1.43103
H         -9.00861        6.26965        0.67045
*
