&CONTROL
    calculation = "scf"
    max_seconds =  8.64000e+04
    pseudo_dir    = "/home/ys/qe-7.3.1/pseudo/Standard_solid-state_pseudopotentials_SSSP_1.3.0_PBE_efficiency"
    outdir = "/home/ys/Research/PSID_server_room/qe/zinc_surface/scf/zn_002_4layers_scf"
/

&SYSTEM
    a           =  1.04574e+01
    c           =  2.48732e+01
    degauss     =  1.00000e-02
    ecutrho     =  5.00000e+02
    ecutwfc     =  5.00000e+01
    ibrav       = 4
    nat         = 64
    ntyp        = 1
    occupations = "smearing"
    smearing    = "gaussian"
/

&ELECTRONS
    conv_thr         =  1.00000e-06
    electron_maxstep = 200
    mixing_beta      =  7.00000e-01
    startingpot      = "atomic"
    startingwfc      = "atomic+random"
/

K_POINTS {gamma}

ATOMIC_SPECIES
Zn     65.39000  Zn_pbe_v1.uspp.F.UPF

ATOMIC_POSITIONS {angstrom}
Zn     -0.000005   1.509404   1.218287
Zn     -1.307185   3.773507   1.218287
Zn     -2.614365   6.037609   1.218287
Zn     -3.921545   8.301711   1.218287
Zn      2.614355   1.509404   1.218287
Zn      1.307175   3.773507   1.218287
Zn     -0.000005   6.037609   1.218287
Zn     -1.307185   8.301711   1.218287
Zn      5.228715   1.509404   1.218287
Zn      3.921535   3.773507   1.218287
Zn      2.614355   6.037609   1.218287
Zn      1.307175   8.301711   1.218287
Zn      7.843075   1.509404   1.218287
Zn      6.535895   3.773507   1.218287
Zn      5.228715   6.037609   1.218287
Zn      3.921535   8.301711   1.218287
Zn     -0.000005   1.509404   3.654862
Zn     -1.307185   3.773507   3.654862
Zn     -2.614365   6.037609   3.654862
Zn     -3.921545   8.301711   3.654862
Zn      2.614355   1.509404   3.654862
Zn      1.307175   3.773507   3.654862
Zn     -0.000005   6.037609   3.654862
Zn     -1.307185   8.301711   3.654862
Zn      5.228715   1.509404   3.654862
Zn      3.921535   3.773507   3.654862
Zn      2.614355   6.037609   3.654862
Zn      1.307175   8.301711   3.654862
Zn      7.843075   1.509404   3.654862
Zn      6.535895   3.773507   3.654862
Zn      5.228715   6.037609   3.654862
Zn      3.921535   8.301711   3.654862
Zn      1.307185   0.754698   1.218287
Zn      0.000005   3.018800   1.218287
Zn     -1.307175   5.282902   1.218287
Zn     -2.614355   7.547004   1.218287
Zn      3.921545   0.754698   1.218287
Zn      2.614365   3.018800   1.218287
Zn      1.307185   5.282902   1.218287
Zn      0.000005   7.547004   1.218287
Zn      6.535905   0.754698   1.218287
Zn      5.228725   3.018800   1.218287
Zn      3.921545   5.282902   1.218287
Zn      2.614365   7.547004   1.218287
Zn      9.150265   0.754698   1.218287
Zn      7.843085   3.018800   1.218287
Zn      6.535905   5.282902   1.218287
Zn      5.228725   7.547004   1.218287
Zn      1.307185   0.754698   3.654862
Zn      0.000005   3.018800   3.654862
Zn     -1.307175   5.282902   3.654862
Zn     -2.614355   7.547004   3.654862
Zn      3.921545   0.754698   3.654862
Zn      2.614365   3.018800   3.654862
Zn      1.307185   5.282902   3.654862
Zn      0.000005   7.547004   3.654862
Zn      6.535905   0.754698   3.654862
Zn      5.228725   3.018800   3.654862
Zn      3.921545   5.282902   3.654862
Zn      2.614365   7.547004   3.654862
Zn      9.150265   0.754698   3.654862
Zn      7.843085   3.018800   3.654862
Zn      6.535905   5.282902   3.654862
Zn      5.228725   7.547004   3.654862

