! wB97X-D3 def2-TZVPP TightSCF RIJCOSX SP

%pal
nprocs 28
end

%maxcore 3500

* xyz -1 2
  O          -0.00459134471940      0.00000000000000      0.00000000000000
  O           1.33459134471940      0.00000000000000      0.00000000000000
*
