&CONTROL
    calculation = "scf"
    max_seconds =  8.64000e+04
    pseudo_dir    = "/home/ys/qe-7.3.1/pseudo/Standard_solid-state_pseudopotentials_SSSP_1.3.0_PBE_efficiency"
    outdir = "/home/ys/Research/PSID_server_room/qe/ABN_scf"
/

&SYSTEM
    a           =  2.50000e+01
    degauss     =  1.00000e-02
    ecutrho     =  5.00000e+02
    ecutwfc     =  5.00000e+01
    ibrav       = 1
    nat         = 15
    nosym       = .FALSE.
    ntyp        = 3
    occupations = "fixed"
/

&ELECTRONS
    conv_thr         =  1.00000e-06
    electron_maxstep = 200
    mixing_beta      =  7.00000e-01
    startingpot      = "atomic"
    startingwfc      = "atomic+random"
/

K_POINTS {gamma}

ATOMIC_SPECIES
N      14.00674  N.pbe-n-radius_5.UPF
C      12.01070  C.pbe-n-kjpaw_psl.1.0.0.UPF
H       1.00794  H.pbe-rrkjus_psl.1.0.0.UPF

ATOMIC_POSITIONS {angstrom}
N                7.7054994158        4.5700907085        4.5709037675
N                0.9158829304        4.5702838099        4.5702739969
C                6.3365557550        4.5701238880        4.5705095448
C                5.6128773944        3.3577819660        4.5705098406
C                5.6129389285        5.7825033017        4.5704902866
C                3.5076046804        4.5701948575        4.5704186324
C                4.2273691469        3.3589759612        4.5704587395
C                4.2274303652        5.7813758440        4.5704393435
C                2.0835854686        4.5702383975        4.5703396199
H                6.1532106072        2.4093572668        4.5705504394
H                6.1533187437        6.7309000821        4.5705143310
H                3.6847649131        2.4141707492        4.5704315424
H                3.6848708506        6.7262072268        4.5703959526
H                8.2268526204        5.4337283869        4.5694297476
H                8.2268081799        3.7064215539        4.5694402154
