%BLOCK LATTICE_CART
ang    # angstrom units
  31.495500000000    0.000000000000     0.000000000000   
  0.000000000000     31.495500000000    0.000000000000   
 -15.747606487556   -15.747606487556    22.451396557590  
%ENDBLOCK LATTICE_CART

%BLOCK POSITIONS_FRAC
Cu     0.769620000000     0.732280000000     0.251420000000   
Cu     0.518190000000     0.480860000000     0.748570000000   
Cu     0.481810000000     0.519140000000     0.251430000000   
Cu     0.453330000000     0.165840000000     0.000010000000   
Cu     0.809680000000     0.475760000000     0.334860000000   
Cu     0.834160000000     0.453330000000     0.000000000000   
Cu     0.732280000000     0.481810000000     0.251420000000   
Cu     0.859100000000     0.809680000000     0.334860000000   
Cu     0.750720000000     0.464560000000     0.000000000000   
Cu     0.140900000000     0.190320000000     0.665140000000   
Cu     0.525180000000     0.859100000000     0.334860000000   
Cu     0.475760000000     0.525180000000     0.334860000000   
Cu     0.464560000000     0.249280000000     0.000000000000   
Cu     0.535440000000     0.750720000000     0.000000000000   
Cu     0.230380000000     0.267720000000     0.748580000000   
Cu     0.519140000000     0.769620000000     0.251430000000   
Cu     0.249280000000     0.535440000000     0.000000000000   
Cu     0.165840000000     0.546670000000     0.000000000000   
Cu     0.474820000000     0.140900000000     0.665140000000   
Cu     0.524240000000     0.474820000000     0.665140000000   
Cu     0.546670000000     0.834160000000     0.999990000000   
Cu     0.267720000000     0.518190000000     0.748580000000   
Cu     0.190320000000     0.524240000000     0.665140000000   
Cu     0.480860000000     0.230380000000     0.748570000000   
H      0.926200000000     0.899200000000     0.410800000000   
H      0.214500000000     0.746300000000     0.726600000000   
H      0.274500000000     0.896900000000     0.784400000000   
H      0.691300000000     0.786500000000     0.141000000000   
H      0.930700000000     0.614600000000     0.123800000000   
H      0.463900000000     0.182300000000     0.550800000000   
H      0.564600000000     0.770700000000     0.856000000000   
H      0.330200000000     0.519600000000     0.144400000000   
H      0.624800000000     0.330200000000     0.144400000000   
H      0.462300000000     0.207600000000     0.214000000000   
H      0.490100000000     0.112500000000     0.215600000000   
H      0.689400000000     0.500200000000     0.749600000000   
H      0.073800000000     0.100800000000     0.589200000000   
H      0.691600000000     0.934500000000     0.448800000000   
H      0.725500000000     0.103100000000     0.215600000000   
H      0.914700000000     0.435400000000     0.144000000000   
H      0.308700000000     0.213500000000     0.859000000000   
H      0.490800000000     0.069300000000     0.876200000000   
H      0.511600000000     0.926200000000     0.410800000000   
H      0.205800000000     0.468400000000     0.456600000000   
H      0.322100000000     0.501400000000     0.826800000000   
H      0.905800000000     0.445600000000     0.270600000000   
H      0.185800000000     0.375200000000     0.855600000000   
H      0.749200000000     0.011800000000     0.543400000000   
H      0.069300000000     0.385400000000     0.876200000000   
H      0.913100000000     0.631500000000     0.449200000000   
H      0.817700000000     0.913100000000     0.449200000000   
H      0.059900000000     0.445000000000     0.184400000000   
H      0.516100000000     0.679300000000     0.317000000000   
H      0.480400000000     0.185800000000     0.855600000000   
H      0.940100000000     0.555000000000     0.815600000000   
H      0.750600000000     0.310600000000     0.250400000000   
H      0.484600000000     0.511600000000     0.410800000000   
H      0.531600000000     0.749200000000     0.543400000000   
H      0.939800000000     0.750600000000     0.250400000000   
H      0.631500000000     0.536100000000     0.449200000000   
H      0.487900000000     0.019700000000     0.273400000000   
H      0.637700000000     0.516100000000     0.317000000000   
H      0.674600000000     0.677900000000     0.173200000000   
H      0.746300000000     0.512100000000     0.726600000000   
H      0.814200000000     0.624800000000     0.144400000000   
H      0.085300000000     0.564600000000     0.856000000000   
H      0.364800000000     0.825000000000     0.270600000000   
H      0.512100000000     0.980300000000     0.726600000000   
H      0.019700000000     0.785500000000     0.273400000000   
H      0.792400000000     0.248300000000     0.786000000000   
H      0.509200000000     0.930700000000     0.123800000000   
H      0.229300000000     0.708600000000     0.144000000000   
H      0.504700000000     0.325400000000     0.826800000000   
H      0.060200000000     0.249400000000     0.749600000000   
H      0.751700000000     0.006400000000     0.214000000000   
H      0.495300000000     0.674600000000     0.173200000000   
H      0.086900000000     0.368500000000     0.550800000000   
H      0.785500000000     0.253700000000     0.273400000000   
H      0.554400000000     0.635200000000     0.729400000000   
H      0.213500000000     0.550300000000     0.859000000000   
H      0.291400000000     0.085300000000     0.856000000000   
H      0.514300000000     0.691600000000     0.448800000000   
H      0.645500000000     0.308700000000     0.859000000000   
H      0.509900000000     0.887500000000     0.784400000000   
H      0.614600000000     0.193100000000     0.123800000000   
H      0.124500000000     0.739400000000     0.184400000000   
H      0.112500000000     0.725500000000     0.215600000000   
H      0.385400000000     0.806900000000     0.876200000000   
H      0.249400000000     0.689400000000     0.749600000000   
H      0.899200000000     0.484600000000     0.410800000000   
H      0.708600000000     0.914700000000     0.144000000000   
H      0.250800000000     0.988200000000     0.456600000000   
H      0.445600000000     0.364800000000     0.270600000000   
H      0.354500000000     0.691300000000     0.141000000000   
H      0.325400000000     0.322100000000     0.826800000000   
H      0.435400000000     0.229300000000     0.144000000000   
H      0.515400000000     0.488400000000     0.589200000000   
H      0.449700000000     0.354500000000     0.141000000000   
H      0.094200000000     0.554400000000     0.729400000000   
H      0.739400000000     0.059900000000     0.184400000000   
H      0.794200000000     0.531600000000     0.543400000000   
H      0.887500000000     0.274500000000     0.784400000000   
H      0.786500000000     0.449700000000     0.141000000000   
H      0.993600000000     0.537700000000     0.786000000000   
H      0.011800000000     0.794200000000     0.543400000000   
H      0.368500000000     0.463900000000     0.550800000000   
H      0.679300000000     0.800900000000     0.317000000000   
H      0.182300000000     0.086900000000     0.550800000000   
H      0.501400000000     0.504700000000     0.826800000000   
H      0.550300000000     0.645500000000     0.859000000000   
H      0.483900000000     0.320700000000     0.683000000000   
H      0.806900000000     0.490800000000     0.876200000000   
H      0.199100000000     0.362300000000     0.683000000000   
H      0.488400000000     0.073800000000     0.589200000000   
H      0.519600000000     0.814200000000     0.144400000000   
H      0.934500000000     0.757200000000     0.448800000000   
H      0.445000000000     0.124500000000     0.184400000000   
H      0.499800000000     0.939800000000     0.250400000000   
H      0.800900000000     0.637700000000     0.317000000000   
H      0.100800000000     0.515400000000     0.589200000000   
H      0.980300000000     0.214500000000     0.726600000000   
H      0.468400000000     0.250800000000     0.456600000000   
H      0.555000000000     0.875500000000     0.815600000000   
H      0.248300000000     0.993600000000     0.786000000000   
H      0.308400000000     0.065500000000     0.551200000000   
H      0.320700000000     0.199100000000     0.683000000000   
H      0.498600000000     0.495300000000     0.173200000000   
H      0.362300000000     0.483900000000     0.683000000000   
H      0.310600000000     0.499800000000     0.250400000000   
H      0.065500000000     0.242800000000     0.551200000000   
H      0.103100000000     0.490100000000     0.215600000000   
H      0.175000000000     0.094200000000     0.729400000000   
H      0.635200000000     0.175000000000     0.729400000000   
H      0.253700000000     0.487900000000     0.273400000000   
H      0.500200000000     0.060200000000     0.749600000000   
H      0.193100000000     0.509200000000     0.123800000000   
H      0.896900000000     0.509900000000     0.784400000000   
H      0.537700000000     0.792400000000     0.786000000000   
H      0.375200000000     0.669800000000     0.855600000000   
H      0.988200000000     0.205800000000     0.456600000000   
H      0.006400000000     0.462300000000     0.214000000000   
H      0.825000000000     0.905800000000     0.270600000000   
H      0.485700000000     0.308400000000     0.551200000000   
H      0.669800000000     0.480400000000     0.855600000000   
H      0.207600000000     0.751700000000     0.214000000000   
H      0.536100000000     0.817700000000     0.449200000000   
H      0.260600000000     0.940100000000     0.815600000000   
H      0.757200000000     0.514300000000     0.448800000000   
H      0.677900000000     0.498600000000     0.173200000000   
H      0.770700000000     0.291400000000     0.856000000000   
H      0.242800000000     0.485700000000     0.551200000000   
H      0.875500000000     0.260600000000     0.815600000000   
C      0.706330000000     0.229200000000     0.788800000000   
C      0.711350000000     0.819680000000     0.159060000000   
C      0.930550000000     0.697690000000     0.456840000000   
C      0.445040000000     0.345550000000     0.236420000000   
C      0.481680000000     0.300630000000     0.647860000000   
C      0.855750000000     0.202480000000     0.740880000000   
C      0.461600000000     0.144250000000     0.259120000000   
C      0.178750000000     0.479850000000     0.241240000000   
C      0.131370000000     0.388710000000     0.872300000000   
C      0.472380000000     0.224020000000     0.651900000000   
C      0.527620000000     0.775980000000     0.348100000000   
C      0.640040000000     0.309500000000     0.156420000000   
C      0.697690000000     0.526290000000     0.456840000000   
C      0.851740000000     0.203210000000     0.323680000000   
C      0.485830000000     0.147970000000     0.763360000000   
C      0.770080000000     0.214800000000     0.763020000000   
C      0.468550000000     0.219560000000     0.452720000000   
C      0.535120000000     0.834270000000     0.642760000000   
C      0.774520000000     0.168690000000     0.724620000000   
C      0.808490000000     0.535120000000     0.642760000000   
C      0.552290000000     0.660620000000     0.840940000000   
C      0.120470000000     0.851740000000     0.323680000000   
C      0.165730000000     0.892360000000     0.357240000000   
C      0.796790000000     0.528060000000     0.676320000000   
C      0.099250000000     0.351080000000     0.568720000000   
C      0.761210000000     0.841520000000     0.210000000000   
C      0.743390000000     0.364340000000     0.918320000000   
C      0.831310000000     0.049900000000     0.275380000000   
C      0.241440000000     0.777680000000     0.754280000000   
C      0.503070000000     0.942130000000     0.189560000000   
C      0.225480000000     0.831310000000     0.275380000000   
C      0.277530000000     0.615390000000     0.763360000000   
C      0.834910000000     0.529020000000     0.724880000000   
C      0.752570000000     0.496930000000     0.810440000000   
C      0.761310000000     0.474770000000     0.920680000000   
C      0.885130000000     0.538400000000     0.740880000000   
C      0.238790000000     0.158480000000     0.790000000000   
C      0.921840000000     0.715590000000     0.219600000000   
C      0.297760000000     0.504010000000     0.219600000000   
C      0.373450000000     0.473760000000     0.621480000000   
C      0.554960000000     0.654450000000     0.763580000000   
C      0.782420000000     0.813900000000     0.239120000000   
C      0.308890000000     0.152760000000     0.865360000000   
C      0.531450000000     0.780440000000     0.547280000000   
C      0.259070000000     0.516410000000     0.127700000000   
C      0.293380000000     0.086410000000     0.568840000000   
C      0.820480000000     0.572120000000     0.348100000000   
C      0.890870000000     0.445040000000     0.236420000000   
C      0.293670000000     0.770800000000     0.211200000000   
C      0.660620000000     0.288650000000     0.840940000000   
C      0.345550000000     0.791380000000     0.236420000000   
C      0.706620000000     0.913590000000     0.431160000000   
C      0.222320000000     0.487160000000     0.245720000000   
C      0.202480000000     0.885130000000     0.740880000000   
C      0.456700000000     0.425220000000     0.239120000000   
C      0.889970000000     0.195860000000     0.724880000000   
C      0.180320000000     0.552290000000     0.840940000000   
C      0.858790000000     0.544330000000     0.659220000000   
C      0.676770000000     0.864570000000     0.378240000000   
C      0.525230000000     0.840630000000     0.079320000000   
C      0.057570000000     0.767810000000     0.590800000000   
C      0.278460000000     0.103560000000     0.839320000000   
C      0.652770000000     0.518320000000     0.352140000000   
C      0.810610000000     0.162410000000     0.708640000000   
C      0.007060000000     0.451780000000     0.236980000000   
C      0.186100000000     0.543300000000     0.760880000000   
C      0.885110000000     0.141210000000     0.340780000000   
C      0.868630000000     0.611290000000     0.127700000000   
C      0.516410000000     0.868630000000     0.127700000000   
C      0.083720000000     0.366080000000     0.856540000000   
C      0.800430000000     0.114890000000     0.659220000000   
C      0.841520000000     0.448790000000     0.210000000000   
C      0.256610000000     0.635660000000     0.081680000000   
C      0.114870000000     0.461600000000     0.259120000000   
C      0.049900000000     0.444070000000     0.275380000000   
C      0.834270000000     0.107640000000     0.642760000000   
C      0.444070000000     0.225480000000     0.275380000000   
C      0.109130000000     0.554960000000     0.763580000000   
C      0.528060000000     0.879530000000     0.676320000000   
C      0.504010000000     0.921840000000     0.219600000000   
C      0.302310000000     0.473710000000     0.543160000000   
C      0.984170000000     0.233160000000     0.452720000000   
C      0.135430000000     0.298530000000     0.621760000000   
C      0.069450000000     0.302310000000     0.543160000000   
C      0.443530000000     0.287400000000     0.134640000000   
C      0.529020000000     0.889970000000     0.724880000000   
C      0.514170000000     0.852030000000     0.236640000000   
C      0.284410000000     0.702240000000     0.780400000000   
C      0.165090000000     0.470980000000     0.275120000000   
C      0.766840000000     0.531450000000     0.547280000000   
C      0.715590000000     0.297760000000     0.219600000000   
C      0.177010000000     0.942430000000     0.409200000000   
C      0.451780000000     0.229920000000     0.236980000000   
C      0.821250000000     0.520150000000     0.758760000000   
C      0.913590000000     0.724540000000     0.431160000000   
C      0.937510000000     0.238610000000     0.758760000000   
C      0.082470000000     0.559600000000     0.788800000000   
C      0.772820000000     0.490460000000     0.856540000000   
C      0.208620000000     0.109130000000     0.763580000000   
C      0.722470000000     0.384610000000     0.236640000000   
C      0.023400000000     0.758560000000     0.245720000000   
C      0.240850000000     0.069450000000     0.543160000000   
C      0.482430000000     0.293380000000     0.568840000000   
C      0.110030000000     0.804140000000     0.275120000000   
C      0.518320000000     0.699370000000     0.352140000000   
C      0.992940000000     0.548220000000     0.763020000000   
C      0.976600000000     0.241440000000     0.754280000000   
C      0.473710000000     0.240850000000     0.543160000000   
C      0.670980000000     0.488570000000     0.796420000000   
C      0.247430000000     0.503070000000     0.189560000000   
C      0.635660000000     0.825070000000     0.081680000000   
C      0.648920000000     0.530530000000     0.431280000000   
C      0.574780000000     0.217580000000     0.760880000000   
C      0.813900000000     0.456700000000     0.239120000000   
C      0.845610000000     0.728870000000     0.348040000000   
C      0.168690000000     0.950100000000     0.724620000000   
C      0.152760000000     0.556470000000     0.865360000000   
C      0.767810000000     0.533230000000     0.590800000000   
C      0.900750000000     0.648920000000     0.431280000000   
C      0.275460000000     0.482430000000     0.568840000000   
C      0.692150000000     0.329020000000     0.203580000000   
C      0.712600000000     0.308890000000     0.865360000000   
C      0.544330000000     0.800430000000     0.659220000000   
C      0.490460000000     0.083720000000     0.856540000000   
C      0.686490000000     0.247430000000     0.189560000000   
C      0.825070000000     0.446020000000     0.081680000000   
C      0.942430000000     0.232190000000     0.409200000000   
C      0.471940000000     0.120470000000     0.323680000000   
C      0.804140000000     0.165090000000     0.275120000000   
C      0.144250000000     0.797520000000     0.259120000000   
C      0.232190000000     0.466770000000     0.409200000000   
C      0.556470000000     0.712600000000     0.865360000000   
C      0.464880000000     0.165730000000     0.357240000000   
C      0.699370000000     0.833820000000     0.352140000000   
C      0.309500000000     0.516380000000     0.156420000000   
C      0.248030000000     0.147720000000     0.621480000000   
C      0.690500000000     0.483620000000     0.843580000000   
C      0.103560000000     0.560860000000     0.839320000000   
C      0.572120000000     0.527620000000     0.348100000000   
C      0.479850000000     0.062490000000     0.241240000000   
C      0.313510000000     0.752570000000     0.810440000000   
C      0.199570000000     0.885110000000     0.340780000000   
C      0.751970000000     0.852280000000     0.378520000000   
C      0.555930000000     0.774520000000     0.724620000000   
C      0.086410000000     0.275460000000     0.568840000000   
C      0.728870000000     0.502430000000     0.348040000000   
C      0.777680000000     0.512840000000     0.754280000000   
C      0.229920000000     0.785200000000     0.236980000000   
C      0.633920000000     0.227180000000     0.143460000000   
C      0.153080000000     0.359960000000     0.843580000000   
C      0.701470000000     0.513670000000     0.378240000000   
C      0.538400000000     0.855750000000     0.740880000000   
C      0.486330000000     0.323230000000     0.621760000000   
C      0.512840000000     0.976600000000     0.754280000000   
C      0.148260000000     0.796790000000     0.676320000000   
C      0.469470000000     0.217640000000     0.568720000000   
C      0.879530000000     0.148260000000     0.676320000000   
C      0.502430000000     0.619170000000     0.348040000000   
C      0.530530000000     0.782360000000     0.431280000000   
C      0.015830000000     0.766840000000     0.547280000000   
C      0.466770000000     0.177010000000     0.409200000000   
C      0.159370000000     0.445910000000     0.920680000000   
C      0.107640000000     0.808490000000     0.642760000000   
C      0.615390000000     0.485830000000     0.763360000000   
C      0.791380000000     0.890870000000     0.236420000000   
C      0.339380000000     0.711350000000     0.159060000000   
C      0.553980000000     0.743390000000     0.918320000000   
C      0.721540000000     0.896440000000     0.160680000000   
C      0.351080000000     0.469470000000     0.568720000000   
C      0.619170000000     0.845610000000     0.348040000000   
C      0.797520000000     0.114870000000     0.259120000000   
C      0.307850000000     0.670980000000     0.796420000000   
C      0.495990000000     0.078160000000     0.780400000000   
C      0.388710000000     0.740930000000     0.872300000000   
C      0.224020000000     0.179520000000     0.651900000000   
C      0.298530000000     0.486330000000     0.621760000000   
C      0.833820000000     0.652770000000     0.352140000000   
C      0.323230000000     0.135430000000     0.621760000000   
C      0.446020000000     0.256610000000     0.081680000000   
C      0.474770000000     0.159370000000     0.920680000000   
C      0.917530000000     0.440400000000     0.211200000000   
C      0.551210000000     0.631520000000     0.790000000000   
C      0.078160000000     0.284410000000     0.780400000000   
C      0.950100000000     0.555930000000     0.724620000000   
C      0.174930000000     0.553980000000     0.918320000000   
C      0.427880000000     0.472380000000     0.651900000000   
C      0.758560000000     0.222320000000     0.245720000000   
C      0.548220000000     0.770080000000     0.763020000000   
C      0.147970000000     0.277530000000     0.763360000000   
C      0.141210000000     0.455670000000     0.340780000000   
C      0.822990000000     0.057570000000     0.590800000000   
C      0.219560000000     0.984170000000     0.452720000000   
C      0.509540000000     0.916280000000     0.143460000000   
C      0.702240000000     0.495990000000     0.780400000000   
C      0.125440000000     0.307850000000     0.796420000000   
C      0.496930000000     0.057870000000     0.810440000000   
C      0.511430000000     0.874560000000     0.203580000000   
C      0.057870000000     0.313510000000     0.810440000000   
C      0.488570000000     0.125440000000     0.796420000000   
C      0.440400000000     0.293670000000     0.211200000000   
C      0.497570000000     0.380830000000     0.651960000000   
C      0.217580000000     0.186100000000     0.760880000000   
C      0.162410000000     0.898030000000     0.708640000000   
C      0.238610000000     0.821250000000     0.758760000000   
C      0.654450000000     0.208620000000     0.763580000000   
C      0.846920000000     0.640040000000     0.156420000000   
C      0.425220000000     0.782420000000     0.239120000000   
C      0.626550000000     0.526240000000     0.378520000000   
C      0.229200000000     0.082470000000     0.788800000000   
C      0.770800000000     0.917530000000     0.211200000000   
C      0.761390000000     0.178750000000     0.241240000000   
C      0.487160000000     0.023400000000     0.245720000000   
C      0.364340000000     0.174930000000     0.918320000000   
C      0.455670000000     0.199570000000     0.340780000000   
C      0.546230000000     0.810610000000     0.708640000000   
C      0.264240000000     0.721540000000     0.160680000000   
C      0.366080000000     0.772820000000     0.856540000000   
C      0.847240000000     0.443530000000     0.134640000000   
C      0.483590000000     0.131370000000     0.872300000000   
C      0.347230000000     0.481680000000     0.647860000000   
C      0.158480000000     0.551210000000     0.790000000000   
C      0.203210000000     0.471940000000     0.323680000000   
C      0.516380000000     0.846920000000     0.156420000000   
C      0.837590000000     0.101970000000     0.291360000000   
C      0.445910000000     0.761310000000     0.920680000000   
C      0.775980000000     0.820480000000     0.348100000000   
C      0.520150000000     0.937510000000     0.758760000000   
C      0.533230000000     0.822990000000     0.590800000000   
C      0.483620000000     0.153080000000     0.843580000000   
C      0.942130000000     0.686490000000     0.189560000000   
C      0.101970000000     0.453770000000     0.291360000000   
C      0.380830000000     0.154390000000     0.651960000000   
C      0.359960000000     0.690500000000     0.843580000000   
C      0.892360000000     0.191510000000     0.357240000000   
C      0.470980000000     0.110030000000     0.275120000000   
C      0.554090000000     0.238690000000     0.079320000000   
C      0.840630000000     0.554090000000     0.079320000000   
C      0.898030000000     0.546230000000     0.708640000000   
C      0.233160000000     0.468550000000     0.452720000000   
C      0.147720000000     0.373450000000     0.621480000000   
C      0.195860000000     0.834910000000     0.724880000000   
C      0.384610000000     0.514170000000     0.236640000000   
C      0.517570000000     0.706620000000     0.431160000000   
C      0.217640000000     0.099250000000     0.568720000000   
C      0.559600000000     0.706330000000     0.788800000000   
C      0.271130000000     0.497570000000     0.651960000000   
C      0.368480000000     0.761210000000     0.210000000000   
C      0.439140000000     0.264240000000     0.160680000000   
C      0.166180000000     0.347230000000     0.647860000000   
C      0.735760000000     0.278460000000     0.839320000000   
C      0.329020000000     0.511430000000     0.203580000000   
C      0.526240000000     0.751970000000     0.378520000000   
C      0.189390000000     0.837590000000     0.291360000000   
C      0.062490000000     0.761390000000     0.241240000000   
C      0.214800000000     0.992940000000     0.763020000000   
C      0.691110000000     0.847240000000     0.134640000000   
C      0.227180000000     0.509540000000     0.143460000000   
C      0.473760000000     0.248030000000     0.621480000000   
C      0.526290000000     0.759150000000     0.456840000000   
C      0.288650000000     0.180320000000     0.840940000000   
C      0.852030000000     0.722470000000     0.236640000000   
C      0.780440000000     0.015830000000     0.547280000000   
C      0.191510000000     0.464880000000     0.357240000000   
C      0.896440000000     0.439140000000     0.160680000000   
C      0.874560000000     0.692150000000     0.203580000000   
C      0.238690000000     0.525230000000     0.079320000000   
C      0.759150000000     0.930550000000     0.456840000000   
C      0.819680000000     0.447710000000     0.159060000000   
C      0.611290000000     0.259070000000     0.127700000000   
C      0.154390000000     0.271130000000     0.651960000000   
C      0.852280000000     0.626550000000     0.378520000000   
C      0.448790000000     0.368480000000     0.210000000000   
C      0.287400000000     0.691110000000     0.134640000000   
C      0.782360000000     0.900750000000     0.431280000000   
C      0.631520000000     0.238790000000     0.790000000000   
C      0.543300000000     0.574780000000     0.760880000000   
C      0.114890000000     0.858790000000     0.659220000000   
C      0.560860000000     0.735760000000     0.839320000000   
C      0.740930000000     0.483590000000     0.872300000000   
C      0.453770000000     0.189390000000     0.291360000000   
C      0.785200000000     0.007060000000     0.236980000000   
C      0.179520000000     0.427880000000     0.651900000000   
C      0.916280000000     0.633920000000     0.143460000000   
C      0.513670000000     0.676770000000     0.378240000000   
C      0.864570000000     0.701470000000     0.378240000000   
C      0.724540000000     0.517570000000     0.431160000000   
C      0.300630000000     0.166180000000     0.647860000000   
C      0.447710000000     0.339380000000     0.159060000000   
N      0.314310000000     0.836790000000     0.831020000000   
N      0.798760000000     0.968230000000     0.239940000000   
N      0.575000000000     0.705940000000     0.721360000000   
N      0.522550000000     0.949240000000     0.806500000000   
N      0.213600000000     0.493240000000     0.203760000000   
N      0.716050000000     0.142740000000     0.193500000000   
N      0.990160000000     0.710520000000     0.203760000000   
N      0.047460000000     0.721400000000     0.579920000000   
N      0.009840000000     0.289480000000     0.796240000000   
N      0.037500000000     0.429000000000     0.302500000000   
N      0.308460000000     0.471600000000     0.470400000000   
N      0.005770000000     0.685690000000     0.168980000000   
N      0.728290000000     0.201240000000     0.760060000000   
N      0.916400000000     0.526100000000     0.780400000000   
N      0.691540000000     0.528400000000     0.529600000000   
N      0.209220000000     0.018510000000     0.489020000000   
N      0.685690000000     0.163210000000     0.168980000000   
N      0.015420000000     0.575000000000     0.721360000000   
N      0.271710000000     0.798760000000     0.239940000000   
N      0.981490000000     0.720200000000     0.510980000000   
N      0.473900000000     0.136000000000     0.219600000000   
N      0.467540000000     0.141480000000     0.420080000000   
N      0.529490000000     0.790780000000     0.510980000000   
N      0.962500000000     0.571000000000     0.697500000000   
N      0.283950000000     0.857260000000     0.806500000000   
N      0.429000000000     0.265000000000     0.302500000000   
N      0.516710000000     0.994230000000     0.831020000000   
N      0.050760000000     0.716050000000     0.193500000000   
N      0.279800000000     0.470510000000     0.489020000000   
N      0.477450000000     0.050760000000     0.193500000000   
N      0.984580000000     0.425000000000     0.278640000000   
N      0.294060000000     0.853640000000     0.278640000000   