&CONTROL
    calculation   = "relax"
    forc_conv_thr =  1.00000e-03
    max_seconds   =  1.72800e+05
    nstep         = 100
    pseudo_dir    = "/home/ys/qe-7.3.1/pseudo/Standard_solid-state_pseudopotentials_SSSP_1.3.0_PBE_efficiency"
    outdir = "/home/ys/Research/PSID_server_room/qe/zinc_surface/zn_101_5layers_relax"
/

&SYSTEM
    a           =  1.78688e+01
    b           =  1.30718e+01
    c           =  3.22683e+01
    cosab       =  3.65770e-01
    cosac       = -7.03066e-02
    cosbc       = -3.65770e-01
    degauss     =  1.00000e-02
    ecutrho     =  5.00000e+02
    ecutwfc     =  5.00000e+01
    ibrav       = 14
    nat         = 300
    ntyp        = 1
    occupations = "fixed"
    smearing    = "gaussian"
/

&ELECTRONS
    conv_thr         =  1.00000e-06
    electron_maxstep = 200
    mixing_beta      =  7.00000e-01
    startingpot      = "atomic"
    startingwfc      = "atomic+random"
/


&IONS
    ion_dynamics = "bfgs"
/

&CELL
/

K_POINTS {gamma}

ATOMIC_SPECIES
Zn     65.39000  Zn_pbe_v1.uspp.F.UPF

ATOMIC_POSITIONS {angstrom}
Zn      1.786879   0.702260   0.276423
Zn      2.743136   3.135458   0.276423
Zn      3.699393   5.568655   0.276423
Zn      4.655650   8.001852   0.276423
Zn      5.611907  10.435050   0.276423
Zn      5.360645   0.702260   0.276423
Zn      6.316902   3.135458   0.276423
Zn      7.273159   5.568655   0.276423
Zn      8.229416   8.001852   0.276423
Zn      9.185673  10.435050   0.276423
Zn      8.934410   0.702260   0.276423
Zn      9.890667   3.135458   0.276423
Zn     10.846924   5.568655   0.276423
Zn     11.803181   8.001852   0.276423
Zn     12.759438  10.435050   0.276423
Zn     12.508176   0.702260   0.276423
Zn     13.464433   3.135458   0.276423
Zn     14.420690   5.568655   0.276423
Zn     15.376947   8.001852   0.276423
Zn     16.333204  10.435050   0.276423
Zn     16.081942   0.702260   0.276423
Zn     17.038199   3.135458   0.276423
Zn     17.994456   5.568655   0.276423
Zn     18.950713   8.001852   0.276423
Zn     19.906970  10.435050   0.276423
Zn      1.535616  -0.603504   3.593615
Zn      2.491873   1.829694   3.593615
Zn      3.448130   4.262891   3.593615
Zn      4.404387   6.696088   3.593615
Zn      5.360644   9.129286   3.593615
Zn      5.109381  -0.603504   3.593615
Zn      6.065638   1.829694   3.593615
Zn      7.021895   4.262891   3.593615
Zn      7.978152   6.696088   3.593615
Zn      8.934409   9.129286   3.593615
Zn      8.683147  -0.603504   3.593615
Zn      9.639404   1.829694   3.593615
Zn     10.595661   4.262891   3.593615
Zn     11.551918   6.696088   3.593615
Zn     12.508175   9.129286   3.593615
Zn     12.256912  -0.603504   3.593615
Zn     13.213169   1.829694   3.593615
Zn     14.169426   4.262891   3.593615
Zn     15.125684   6.696088   3.593615
Zn     16.081941   9.129286   3.593615
Zn     15.830678  -0.603504   3.593615
Zn     16.786935   1.829694   3.593615
Zn     17.743192   4.262891   3.593615
Zn     18.699449   6.696088   3.593615
Zn     19.655706   9.129286   3.593615
Zn      1.284354  -1.909256   6.910777
Zn      2.240611   0.523942   6.910777
Zn      3.196868   2.957139   6.910777
Zn      4.153125   5.390336   6.910777
Zn      5.109383   7.823534   6.910777
Zn      4.858120  -1.909256   6.910777
Zn      5.814377   0.523942   6.910777
Zn      6.770634   2.957139   6.910777
Zn      7.726891   5.390336   6.910777
Zn      8.683148   7.823534   6.910777
Zn      8.431886  -1.909256   6.910777
Zn      9.388143   0.523942   6.910777
Zn     10.344400   2.957139   6.910777
Zn     11.300657   5.390336   6.910777
Zn     12.256914   7.823534   6.910777
Zn     12.005651  -1.909256   6.910777
Zn     12.961908   0.523942   6.910777
Zn     13.918165   2.957139   6.910777
Zn     14.874422   5.390336   6.910777
Zn     15.830679   7.823534   6.910777
Zn     15.579417  -1.909256   6.910777
Zn     16.535674   0.523942   6.910777
Zn     17.491931   2.957139   6.910777
Zn     18.448188   5.390336   6.910777
Zn     19.404445   7.823534   6.910777
Zn      2.491882   0.425185   3.040739
Zn      3.448139   2.858383   3.040739
Zn      4.404396   5.291580   3.040739
Zn      5.360653   7.724777   3.040739
Zn      6.316910  10.157975   3.040739
Zn      6.065648   0.425185   3.040739
Zn      7.021905   2.858383   3.040739
Zn      7.978162   5.291580   3.040739
Zn      8.934419   7.724777   3.040739
Zn      9.890676  10.157975   3.040739
Zn      9.639413   0.425185   3.040739
Zn     10.595671   2.858383   3.040739
Zn     11.551928   5.291580   3.040739
Zn     12.508185   7.724777   3.040739
Zn     13.464442  10.157975   3.040739
Zn     13.213179   0.425185   3.040739
Zn     14.169436   2.858383   3.040739
Zn     15.125693   5.291580   3.040739
Zn     16.081950   7.724777   3.040739
Zn     17.038207  10.157975   3.040739
Zn     16.786945   0.425185   3.040739
Zn     17.743202   2.858383   3.040739
Zn     18.699459   5.291580   3.040739
Zn     19.655716   7.724777   3.040739
Zn     20.611973  10.157975   3.040739
Zn      2.240619  -0.880579   6.357931
Zn      3.196876   1.552619   6.357931
Zn      4.153133   3.985816   6.357931
Zn      5.109390   6.419014   6.357931
Zn      6.065647   8.852211   6.357931
Zn      5.814384  -0.880579   6.357931
Zn      6.770641   1.552619   6.357931
Zn      7.726898   3.985816   6.357931
Zn      8.683155   6.419014   6.357931
Zn      9.639413   8.852211   6.357931
Zn      9.388150  -0.880579   6.357931
Zn     10.344407   1.552619   6.357931
Zn     11.300664   3.985816   6.357931
Zn     12.256921   6.419014   6.357931
Zn     13.213178   8.852211   6.357931
Zn     12.961916  -0.880579   6.357931
Zn     13.918173   1.552619   6.357931
Zn     14.874430   3.985816   6.357931
Zn     15.830687   6.419014   6.357931
Zn     16.786944   8.852211   6.357931
Zn     16.535681  -0.880579   6.357931
Zn     17.491938   1.552619   6.357931
Zn     18.448195   3.985816   6.357931
Zn     19.404452   6.419014   6.357931
Zn     20.360709   8.852211   6.357931
Zn      1.989358  -2.186331   9.675093
Zn      2.945615   0.246867   9.675093
Zn      3.901872   2.680064   9.675093
Zn      4.858129   5.113261   9.675093
Zn      5.814386   7.546459   9.675093
Zn      5.563123  -2.186331   9.675093
Zn      6.519380   0.246867   9.675093
Zn      7.475637   2.680064   9.675093
Zn      8.431894   5.113261   9.675093
Zn      9.388151   7.546459   9.675093
Zn      9.136889  -2.186331   9.675093
Zn     10.093146   0.246867   9.675093
Zn     11.049403   2.680064   9.675093
Zn     12.005660   5.113261   9.675093
Zn     12.961917   7.546459   9.675093
Zn     12.710654  -2.186331   9.675093
Zn     13.666911   0.246867   9.675093
Zn     14.623168   2.680064   9.675093
Zn     15.579425   5.113261   9.675093
Zn     16.535682   7.546459   9.675093
Zn     16.284420  -2.186331   9.675093
Zn     17.240677   0.246867   9.675093
Zn     18.196934   2.680064   9.675093
Zn     19.153191   5.113261   9.675093
Zn     20.109448   7.546459   9.675093
Zn      3.448130   0.049378   1.935019
Zn      4.404387   2.482576   1.935019
Zn      5.360644   4.915773   1.935019
Zn      6.316901   7.348970   1.935019
Zn      7.273158   9.782168   1.935019
Zn      7.021896   0.049378   1.935019
Zn      7.978153   2.482576   1.935019
Zn      8.934410   4.915773   1.935019
Zn      9.890667   7.348970   1.935019
Zn     10.846924   9.782168   1.935019
Zn     10.595661   0.049378   1.935019
Zn     11.551918   2.482576   1.935019
Zn     12.508175   4.915773   1.935019
Zn     13.464432   7.348970   1.935019
Zn     14.420690   9.782168   1.935019
Zn     14.169427   0.049378   1.935019
Zn     15.125684   2.482576   1.935019
Zn     16.081941   4.915773   1.935019
Zn     17.038198   7.348970   1.935019
Zn     17.994455   9.782168   1.935019
Zn     17.743193   0.049378   1.935019
Zn     18.699450   2.482576   1.935019
Zn     19.655707   4.915773   1.935019
Zn     20.611964   7.348970   1.935019
Zn     21.568221   9.782168   1.935019
Zn      3.196867  -1.256386   5.252211
Zn      4.153124   1.176812   5.252211
Zn      5.109381   3.610009   5.252211
Zn      6.065638   6.043207   5.252211
Zn      7.021895   8.476404   5.252211
Zn      6.770632  -1.256386   5.252211
Zn      7.726889   1.176812   5.252211
Zn      8.683146   3.610009   5.252211
Zn      9.639403   6.043207   5.252211
Zn     10.595660   8.476404   5.252211
Zn     10.344398  -1.256386   5.252211
Zn     11.300655   1.176812   5.252211
Zn     12.256912   3.610009   5.252211
Zn     13.213169   6.043207   5.252211
Zn     14.169426   8.476404   5.252211
Zn     13.918163  -1.256386   5.252211
Zn     14.874420   1.176812   5.252211
Zn     15.830678   3.610009   5.252211
Zn     16.786935   6.043207   5.252211
Zn     17.743192   8.476404   5.252211
Zn     17.491929  -1.256386   5.252211
Zn     18.448186   1.176812   5.252211
Zn     19.404443   3.610009   5.252211
Zn     20.360700   6.043207   5.252211
Zn     21.316957   8.476404   5.252211
Zn      2.945605  -2.562138   8.569373
Zn      3.901862  -0.128940   8.569373
Zn      4.858119   2.304257   8.569373
Zn      5.814377   4.737454   8.569373
Zn      6.770634   7.170652   8.569373
Zn      6.519371  -2.562138   8.569373
Zn      7.475628  -0.128940   8.569373
Zn      8.431885   2.304257   8.569373
Zn      9.388142   4.737454   8.569373
Zn     10.344399   7.170652   8.569373
Zn     10.093137  -2.562138   8.569373
Zn     11.049394  -0.128940   8.569373
Zn     12.005651   2.304257   8.569373
Zn     12.961908   4.737454   8.569373
Zn     13.918165   7.170652   8.569373
Zn     13.666902  -2.562138   8.569373
Zn     14.623159  -0.128940   8.569373
Zn     15.579416   2.304257   8.569373
Zn     16.535673   4.737454   8.569373
Zn     17.491930   7.170652   8.569373
Zn     17.240668  -2.562138   8.569373
Zn     18.196925  -0.128940   8.569373
Zn     19.153182   2.304257   8.569373
Zn     20.109439   4.737454   8.569373
Zn     21.065696   7.170652   8.569373
Zn      0.830631   1.078067   1.382143
Zn      1.786888   3.511265   1.382143
Zn      2.743145   5.944462   1.382143
Zn      3.699402   8.377659   1.382143
Zn      4.655659  10.810857   1.382143
Zn      4.404397   1.078067   1.382143
Zn      5.360654   3.511265   1.382143
Zn      6.316911   5.944462   1.382143
Zn      7.273168   8.377659   1.382143
Zn      8.229425  10.810857   1.382143
Zn      7.978162   1.078067   1.382143
Zn      8.934419   3.511265   1.382143
Zn      9.890677   5.944462   1.382143
Zn     10.846934   8.377659   1.382143
Zn     11.803191  10.810857   1.382143
Zn     11.551928   1.078067   1.382143
Zn     12.508185   3.511265   1.382143
Zn     13.464442   5.944462   1.382143
Zn     14.420699   8.377659   1.382143
Zn     15.376956  10.810857   1.382143
Zn     15.125694   1.078067   1.382143
Zn     16.081951   3.511265   1.382143
Zn     17.038208   5.944462   1.382143
Zn     17.994465   8.377659   1.382143
Zn     18.950722  10.810857   1.382143
Zn      0.579368  -0.227697   4.699335
Zn      1.535625   2.205501   4.699335
Zn      2.491882   4.638698   4.699335
Zn      3.448139   7.071895   4.699335
Zn      4.404396   9.505093   4.699335
Zn      4.153133  -0.227697   4.699335
Zn      5.109390   2.205501   4.699335
Zn      6.065647   4.638698   4.699335
Zn      7.021904   7.071895   4.699335
Zn      7.978161   9.505093   4.699335
Zn      7.726899  -0.227697   4.699335
Zn      8.683156   2.205501   4.699335
Zn      9.639413   4.638698   4.699335
Zn     10.595670   7.071895   4.699335
Zn     11.551927   9.505093   4.699335
Zn     11.300665  -0.227697   4.699335
Zn     12.256922   2.205501   4.699335
Zn     13.213179   4.638698   4.699335
Zn     14.169436   7.071895   4.699335
Zn     15.125693   9.505093   4.699335
Zn     14.874430  -0.227697   4.699335
Zn     15.830687   2.205501   4.699335
Zn     16.786944   4.638698   4.699335
Zn     17.743201   7.071895   4.699335
Zn     18.699458   9.505093   4.699335
Zn      0.328106  -1.533449   8.016497
Zn      1.284364   0.899749   8.016497
Zn      2.240621   3.332946   8.016497
Zn      3.196878   5.766143   8.016497
Zn      4.153135   8.199341   8.016497
Zn      3.901872  -1.533449   8.016497
Zn      4.858129   0.899749   8.016497
Zn      5.814386   3.332946   8.016497
Zn      6.770643   5.766143   8.016497
Zn      7.726900   8.199341   8.016497
Zn      7.475638  -1.533449   8.016497
Zn      8.431895   0.899749   8.016497
Zn      9.388152   3.332946   8.016497
Zn     10.344409   5.766143   8.016497
Zn     11.300666   8.199341   8.016497
Zn     11.049403  -1.533449   8.016497
Zn     12.005660   0.899749   8.016497
Zn     12.961917   3.332946   8.016497
Zn     13.918174   5.766143   8.016497
Zn     14.874431   8.199341   8.016497
Zn     14.623169  -1.533449   8.016497
Zn     15.579426   0.899749   8.016497
Zn     16.535683   3.332946   8.016497
Zn     17.491940   5.766143   8.016497
Zn     18.448197   8.199341   8.016497
