SimulationType                   MonteCarlo
NumberOfCycles                   0
NumberOfInitializationCycles     0
PrintEvery                       100
RestartFile                      no

Forcefield                       GarciaPerez2006ForceField

ChargeFromChargeEquilibration    yes
ChargeEquilibrationPeriodic      yes
ChargeEquilibrationEwald         yes
SymmetrizeFrameworkCharges       no

Framework           0
FrameworkName [CoreMOF]c6cc00589f_c6cc00589f2_clean
UnitCells 1 1 1
ExternalTemperature 298.0
ExternalPressure    0.0

