! B3LYP def2-SVP OPT TightSCF D3BJ


%maxcore 3000

%pal
nprocs 40
end

* xyz 0 1
O        2.7564475502     -0.2664297050      1.3591413044                 
O        2.7296068280     -0.7589595439     -0.7504229221                 
N        2.2031272037     -0.3232785451      0.2672795625                 
N       -3.0853383358      1.5413614751     -0.1222935851                 
C        0.8325141965      0.1602060429      0.1709997450                 
C       -1.8087790496      1.0910541413     -0.0130380810                 
C        0.1944106640      0.6632161039      1.3106062753                 
C        0.1679591560      0.1164832554     -1.0604374592                 
C       -1.1096581141      1.1224523474      1.2206754325                 
C       -1.1352444681      0.5763192999     -1.1516521164                 
H        0.7403677541      0.6825464060      2.2533561292                 
H        0.6926365008     -0.2797215205     -1.9293424762                 
H       -1.6115196202      1.5151020222      2.1088330448                 
H       -1.6632690911      0.5504613502     -2.1065318971                 
H       -3.5743745658      1.8956685723      0.6877048122                 
H       -3.5721920508      1.4581202729     -1.0128398639                 
O       -3.0265105292      4.4658345019     -0.8176385921                 
H       -2.0692194678      4.3512938082     -0.7502327127                 
H       -3.3964911645      3.6045202776     -0.5816813289                                
*           

