! wB97X-D3 def2-TZVPP TightSCF RIJCOSX SP

%pal
nprocs 28
end

%maxcore 5000

* xyz -1 2
  O           0.00533670813972      0.00000000000000      0.00000000000000
  O           1.32466329186028      0.00000000000000      0.00000000000000
*
