! wB97X-D3 def2-SVP OPT NormalSCF

%pal
nprocs 28
end

%maxcore 3500

%scf
 SmearTemp 500 
end


* xyz -1 2
O          0.00000        0.00000        0.00000
O          1.33000        0.00000        0.00000
*
