&CONTROL
    calculation   = "relax"
    forc_conv_thr =  1.00000e-03
    max_seconds   =  1.72800e+05
    nstep         = 100
    pseudo_dir    = "/home/ys/qe-7.3.1/pseudo/Standard_solid-state_pseudopotentials_SSSP_1.3.0_PBE_efficiency"
    outdir = "/home/ys/Research/PSID_server_room/qe/zinc_surface_water.relax/Zn_002_water"
/

&SYSTEM
    a           =  1.04574e+01
    c           =  2.48732e+01
    degauss     =  1.00000e-02
    ecutrho     =  5.00000e+02
    ecutwfc     =  5.00000e+01
    ibrav       = 4
    nat         = 67
    ntyp        = 3
    occupations = "smearing"
    smearing    = "gaussian"
/

&ELECTRONS
    conv_thr         =  1.00000e-06
    electron_maxstep = 200
    mixing_beta      =  7.00000e-01
    startingpot      = "atomic"
    startingwfc      = "atomic+random"
/

&IONS
    ion_dynamics = "bfgs"
/

&CELL
/

K_POINTS {gamma}

ATOMIC_SPECIES
Zn     65.39000  Zn_pbe_v1.uspp.F.UPF
O      15.99940  O.pbe-n-kjpaw_psl.0.1.UPF
H       1.00794  H.pbe-rrkjus_psl.1.0.0.UPF

ATOMIC_POSITIONS {angstrom}
Zn     -0.000052   1.509426   1.218289
Zn     -1.307227   3.773519   1.218289
Zn     -2.614402   6.037613   1.218289
Zn     -3.921577   8.301706   1.218289
Zn      2.614298   1.509426   1.218289
Zn      1.307123   3.773519   1.218289
Zn     -0.000052   6.037613   1.218289
Zn     -1.307227   8.301706   1.218289
Zn      5.228648   1.509426   1.218289
Zn      3.921473   3.773519   1.218289
Zn      2.614298   6.037613   1.218289
Zn      1.307123   8.301706   1.218289
Zn      7.842998   1.509426   1.218289
Zn      6.535823   3.773519   1.218289
Zn      5.228648   6.037613   1.218289
Zn      3.921473   8.301706   1.218289
Zn     -0.000052   1.509426   3.654868
Zn     -1.307227   3.773519   3.654868
Zn     -2.614402   6.037613   3.654868
Zn     -3.921577   8.301706   3.654868
Zn      2.614298   1.509426   3.654868
Zn      1.307123   3.773519   3.654868
Zn     -0.000052   6.037613   3.654868
Zn     -1.307227   8.301706   3.654868
Zn      5.228648   1.509426   3.654868
Zn      3.921473   3.773519   3.654868
Zn      2.614298   6.037613   3.654868
Zn      1.307123   8.301706   3.654868
Zn      7.842998   1.509426   3.654868
Zn      6.535823   3.773519   3.654868
Zn      5.228648   6.037613   3.654868
Zn      3.921473   8.301706   3.654868
Zn      1.307227   0.754668   1.218289
Zn      0.000052   3.018761   1.218289
Zn     -1.307123   5.282855   1.218289
Zn     -2.614298   7.546948   1.218289
Zn      3.921577   0.754668   1.218289
Zn      2.614402   3.018761   1.218289
Zn      1.307227   5.282855   1.218289
Zn      0.000052   7.546948   1.218289
Zn      6.535927   0.754668   1.218289
Zn      5.228752   3.018761   1.218289
Zn      3.921577   5.282855   1.218289
Zn      2.614402   7.546948   1.218289
Zn      9.150277   0.754668   1.218289
Zn      7.843102   3.018761   1.218289
Zn      6.535927   5.282855   1.218289
Zn      5.228752   7.546948   1.218289
Zn      1.307227   0.754668   3.654868
Zn      0.000052   3.018761   3.654868
Zn     -1.307123   5.282855   3.654868
Zn     -2.614298   7.546948   3.654868
Zn      3.921577   0.754668   3.654868
Zn      2.614402   3.018761   3.654868
Zn      1.307227   5.282855   3.654868
Zn      0.000052   7.546948   3.654868
Zn      6.535927   0.754668   3.654868
Zn      5.228752   3.018761   3.654868
Zn      3.921577   5.282855   3.654868
Zn      2.614402   7.546948   3.654868
Zn      9.150277   0.754668   3.654868
Zn      7.843102   3.018761   3.654868
Zn      6.535927   5.282855   3.654868
Zn      5.228752   7.546948   3.654868
O       3.098737   4.415163   5.537521
H       3.212670   3.468320   5.715364
H       2.822871   4.786656   6.390174

