! B3LYP def2-SVP OPT NormalSCF ALLPOP KEEPDENS D3BJ

%pal
nprocs 28
end

%maxcore 5000

%scf
 SmearTemp 500 
end

* xyz -1 2
  O          -0.03169490650674      1.75876148554265     -1.80901352164238
  O          -4.16699677913493     -1.53404874430042      1.47792878384781
  C           0.94142671395610      0.28382826408577     -0.20712817572083
  C          -0.38874018906133     -0.19155450577471      0.25567903754199
  C          -2.67313935010670     -0.91754893739751     -0.27038866154399
  C          -1.41651869987328     -0.46264135463321     -0.66224332879009
  C           3.38995731978558      0.19995263392543     -0.01056967342824
  C           2.10822226193338     -0.20622941129724      0.38050693111647
  C           1.01995900592647      1.25800026681261     -1.26679936016099
  C          -0.66828062939066     -0.39927135473022      1.61021532780526
  C          -2.92582255634115     -1.10492124897011      1.09643123123309
  C          -3.75968086619690     -1.13999089373533     -1.30250539548871
  C           4.62712741088993     -0.36641393723413      0.65842838613282
  C           3.47284234399772      1.13485277303570     -1.04856477419644
  C          -1.91896993925597     -0.85609389388476      2.02783772173803
  C           2.33385819972510      1.64546305431604     -1.65586621860198
  C          -4.37872016322826      0.16094265928037     -1.74171810706191
  C           4.73192035518438     -1.86170686645540      0.54085987784226
  C          -5.63276029822090      0.53330380225707     -1.48523238526818
  C           4.82607112355980     -2.71617911040048      1.56077309440638
  H          -1.24069924604114     -0.28775705951652     -1.72609449337243
  H           2.01530189889626     -0.96767611610127      1.16480036411507
  H           0.09756011081804     -0.18064688998711      2.36003613977664
  H          -3.30779495454441     -1.62242382536587     -2.18434676759587
  H          -4.53191825479656     -1.81299034547044     -0.90235723729614
  H           5.51732388737488      0.08732532031317      0.18766233932162
  H           4.66657431698608     -0.08716728188554      1.72714832606153
  H           4.45953992456286      1.47226093949298     -1.39043390625471
  H          -2.12158928029585     -1.00463685565211      3.09534112135796
  H           2.41372987159679      2.38263111511956     -2.46043327595452
  H          -3.70647877411884      0.82456398325325     -2.30072160433444
  H           4.70046540570245     -2.25464940588950     -0.48388959037585
  H          -0.42645909018467      1.58274166580595     -3.12125517092562
  H          -4.17847138449708     -1.59677275308823      2.43653011816661
  H          -6.02117050978590      1.49908705102669     -1.82180069082171
  H          -6.31188264849867     -0.11092357145679     -0.91547869788346
  H           4.88293491759139     -3.79695931443282      1.40208286922561
  H           4.83706191591826     -2.36345781345574      2.59822484517604
  O          -0.81362158184288      1.40323078074807     -4.10266299057334
  O          -1.64385088248261      0.40991369610020     -4.00028148757333
*
