&CONTROL
    calculation   = "relax"
    forc_conv_thr =  1.00000e-03
    max_seconds   =  1.72800e+05
    nstep         = 100
    pseudo_dir    = "/home/ys/qe-7.3.1/pseudo/Standard_solid-state_pseudopotentials_SSSP_1.3.0_PBE_efficiency"
    outdir = "/home/ys/Research/PSID_server_room/qe/zinc_surface/zn_002_4layers_relax"
/

&SYSTEM
    a           =  1.30718e+01
    c           =  2.97463e+01
    degauss     =  1.00000e-02
    ecutrho     =  5.00000e+02
    ecutwfc     =  5.00000e+01
    ibrav       = 4
    nat         = 200
    ntyp        = 1
    occupations = "fixed"
    smearing    = "gaussian"
/

&ELECTRONS
    conv_thr         =  1.00000e-06
    electron_maxstep = 200
    mixing_beta      =  7.00000e-01
    startingpot      = "atomic"
    startingwfc      = "atomic+random"
/


&IONS
    ion_dynamics = "bfgs"
/

&CELL
/

K_POINTS {gamma}

ATOMIC_SPECIES
Zn     65.39000  Zn_pbe_v1.uspp.F.UPF

ATOMIC_POSITIONS {angstrom}
Zn      0.000007   1.509398   1.218290
Zn     -1.307173   3.773500   1.218290
Zn     -2.614353   6.037602   1.218290
Zn     -3.921533   8.301704   1.218290
Zn     -5.228713  10.565806   1.218290
Zn      2.614366   1.509398   1.218290
Zn      1.307186   3.773500   1.218290
Zn      0.000007   6.037602   1.218290
Zn     -1.307173   8.301704   1.218290
Zn     -2.614353  10.565806   1.218290
Zn      5.228726   1.509398   1.218290
Zn      3.921546   3.773500   1.218290
Zn      2.614366   6.037602   1.218290
Zn      1.307186   8.301704   1.218290
Zn      0.000007  10.565806   1.218290
Zn      7.843086   1.509398   1.218290
Zn      6.535906   3.773500   1.218290
Zn      5.228726   6.037602   1.218290
Zn      3.921546   8.301704   1.218290
Zn      2.614366  10.565806   1.218290
Zn     10.457446   1.509398   1.218290
Zn      9.150266   3.773500   1.218290
Zn      7.843086   6.037602   1.218290
Zn      6.535906   8.301704   1.218290
Zn      5.228726  10.565806   1.218290
Zn      0.000007   1.509398   3.654871
Zn     -1.307173   3.773500   3.654871
Zn     -2.614353   6.037602   3.654871
Zn     -3.921533   8.301704   3.654871
Zn     -5.228713  10.565806   3.654871
Zn      2.614366   1.509398   3.654871
Zn      1.307186   3.773500   3.654871
Zn      0.000007   6.037602   3.654871
Zn     -1.307173   8.301704   3.654871
Zn     -2.614353  10.565806   3.654871
Zn      5.228726   1.509398   3.654871
Zn      3.921546   3.773500   3.654871
Zn      2.614366   6.037602   3.654871
Zn      1.307186   8.301704   3.654871
Zn      0.000007  10.565806   3.654871
Zn      7.843086   1.509398   3.654871
Zn      6.535906   3.773500   3.654871
Zn      5.228726   6.037602   3.654871
Zn      3.921546   8.301704   3.654871
Zn      2.614366  10.565806   3.654871
Zn     10.457446   1.509398   3.654871
Zn      9.150266   3.773500   3.654871
Zn      7.843086   6.037602   3.654871
Zn      6.535906   8.301704   3.654871
Zn      5.228726  10.565806   3.654871
Zn      0.000007   1.509398   6.091452
Zn     -1.307173   3.773500   6.091452
Zn     -2.614353   6.037602   6.091452
Zn     -3.921533   8.301704   6.091452
Zn     -5.228713  10.565806   6.091452
Zn      2.614366   1.509398   6.091452
Zn      1.307186   3.773500   6.091452
Zn      0.000007   6.037602   6.091452
Zn     -1.307173   8.301704   6.091452
Zn     -2.614353  10.565806   6.091452
Zn      5.228726   1.509398   6.091452
Zn      3.921546   3.773500   6.091452
Zn      2.614366   6.037602   6.091452
Zn      1.307186   8.301704   6.091452
Zn      0.000007  10.565806   6.091452
Zn      7.843086   1.509398   6.091452
Zn      6.535906   3.773500   6.091452
Zn      5.228726   6.037602   6.091452
Zn      3.921546   8.301704   6.091452
Zn      2.614366  10.565806   6.091452
Zn     10.457446   1.509398   6.091452
Zn      9.150266   3.773500   6.091452
Zn      7.843086   6.037602   6.091452
Zn      6.535906   8.301704   6.091452
Zn      5.228726  10.565806   6.091452
Zn      0.000007   1.509398   8.528033
Zn     -1.307173   3.773500   8.528033
Zn     -2.614353   6.037602   8.528033
Zn     -3.921533   8.301704   8.528033
Zn     -5.228713  10.565806   8.528033
Zn      2.614366   1.509398   8.528033
Zn      1.307186   3.773500   8.528033
Zn      0.000007   6.037602   8.528033
Zn     -1.307173   8.301704   8.528033
Zn     -2.614353  10.565806   8.528033
Zn      5.228726   1.509398   8.528033
Zn      3.921546   3.773500   8.528033
Zn      2.614366   6.037602   8.528033
Zn      1.307186   8.301704   8.528033
Zn      0.000007  10.565806   8.528033
Zn      7.843086   1.509398   8.528033
Zn      6.535906   3.773500   8.528033
Zn      5.228726   6.037602   8.528033
Zn      3.921546   8.301704   8.528033
Zn      2.614366  10.565806   8.528033
Zn     10.457446   1.509398   8.528033
Zn      9.150266   3.773500   8.528033
Zn      7.843086   6.037602   8.528033
Zn      6.535906   8.301704   8.528033
Zn      5.228726  10.565806   8.528033
Zn      1.307173   0.754704   1.218290
Zn     -0.000007   3.018806   1.218290
Zn     -1.307186   5.282908   1.218290
Zn     -2.614366   7.547010   1.218290
Zn     -3.921546   9.811112   1.218290
Zn      3.921533   0.754704   1.218290
Zn      2.614353   3.018806   1.218290
Zn      1.307173   5.282908   1.218290
Zn     -0.000007   7.547010   1.218290
Zn     -1.307186   9.811112   1.218290
Zn      6.535893   0.754704   1.218290
Zn      5.228713   3.018806   1.218290
Zn      3.921533   5.282908   1.218290
Zn      2.614353   7.547010   1.218290
Zn      1.307173   9.811112   1.218290
Zn      9.150253   0.754704   1.218290
Zn      7.843073   3.018806   1.218290
Zn      6.535893   5.282908   1.218290
Zn      5.228713   7.547010   1.218290
Zn      3.921533   9.811112   1.218290
Zn     11.764613   0.754704   1.218290
Zn     10.457433   3.018806   1.218290
Zn      9.150253   5.282908   1.218290
Zn      7.843073   7.547010   1.218290
Zn      6.535893   9.811112   1.218290
Zn      1.307173   0.754704   3.654871
Zn     -0.000007   3.018806   3.654871
Zn     -1.307186   5.282908   3.654871
Zn     -2.614366   7.547010   3.654871
Zn     -3.921546   9.811112   3.654871
Zn      3.921533   0.754704   3.654871
Zn      2.614353   3.018806   3.654871
Zn      1.307173   5.282908   3.654871
Zn     -0.000007   7.547010   3.654871
Zn     -1.307186   9.811112   3.654871
Zn      6.535893   0.754704   3.654871
Zn      5.228713   3.018806   3.654871
Zn      3.921533   5.282908   3.654871
Zn      2.614353   7.547010   3.654871
Zn      1.307173   9.811112   3.654871
Zn      9.150253   0.754704   3.654871
Zn      7.843073   3.018806   3.654871
Zn      6.535893   5.282908   3.654871
Zn      5.228713   7.547010   3.654871
Zn      3.921533   9.811112   3.654871
Zn     11.764613   0.754704   3.654871
Zn     10.457433   3.018806   3.654871
Zn      9.150253   5.282908   3.654871
Zn      7.843073   7.547010   3.654871
Zn      6.535893   9.811112   3.654871
Zn      1.307173   0.754704   6.091452
Zn     -0.000007   3.018806   6.091452
Zn     -1.307186   5.282908   6.091452
Zn     -2.614366   7.547010   6.091452
Zn     -3.921546   9.811112   6.091452
Zn      3.921533   0.754704   6.091452
Zn      2.614353   3.018806   6.091452
Zn      1.307173   5.282908   6.091452
Zn     -0.000007   7.547010   6.091452
Zn     -1.307186   9.811112   6.091452
Zn      6.535893   0.754704   6.091452
Zn      5.228713   3.018806   6.091452
Zn      3.921533   5.282908   6.091452
Zn      2.614353   7.547010   6.091452
Zn      1.307173   9.811112   6.091452
Zn      9.150253   0.754704   6.091452
Zn      7.843073   3.018806   6.091452
Zn      6.535893   5.282908   6.091452
Zn      5.228713   7.547010   6.091452
Zn      3.921533   9.811112   6.091452
Zn     11.764613   0.754704   6.091452
Zn     10.457433   3.018806   6.091452
Zn      9.150253   5.282908   6.091452
Zn      7.843073   7.547010   6.091452
Zn      6.535893   9.811112   6.091452
Zn      1.307173   0.754704   8.528033
Zn     -0.000007   3.018806   8.528033
Zn     -1.307186   5.282908   8.528033
Zn     -2.614366   7.547010   8.528033
Zn     -3.921546   9.811112   8.528033
Zn      3.921533   0.754704   8.528033
Zn      2.614353   3.018806   8.528033
Zn      1.307173   5.282908   8.528033
Zn     -0.000007   7.547010   8.528033
Zn     -1.307186   9.811112   8.528033
Zn      6.535893   0.754704   8.528033
Zn      5.228713   3.018806   8.528033
Zn      3.921533   5.282908   8.528033
Zn      2.614353   7.547010   8.528033
Zn      1.307173   9.811112   8.528033
Zn      9.150253   0.754704   8.528033
Zn      7.843073   3.018806   8.528033
Zn      6.535893   5.282908   8.528033
Zn      5.228713   7.547010   8.528033
Zn      3.921533   9.811112   8.528033
Zn     11.764613   0.754704   8.528033
Zn     10.457433   3.018806   8.528033
Zn      9.150253   5.282908   8.528033
Zn      7.843073   7.547010   8.528033
Zn      6.535893   9.811112   8.528033

