&CONTROL
    calculation   = "relax"
    forc_conv_thr =  1.00000e-03
    max_seconds   =  1.72800e+05
    nstep         = 100
    pseudo_dir    = "/home/ys/qe-7.3.1/pseudo/Standard_solid-state_pseudopotentials_SSSP_1.3.0_PBE_efficiency"
    outdir = "/home/ys/Research/PSID_server_room/qe/zinc_surface/zn_100_4layers_relax"
/

&SYSTEM
    a           =  2.43658e+01
    b           =  1.30718e+01
    c           =  3.35514e+01
    cosab       =  6.12323e-17
    cosac       =  6.12323e-17
    cosbc       = -5.00000e-01
    degauss     =  1.00000e-02
    ecutrho     =  5.00000e+02
    ecutwfc     =  5.00000e+01
    ibrav       = 14
    nat         = 200
    ntyp        = 1
    occupations = "fixed"
    smearing    = "gaussian"
/

&ELECTRONS
    conv_thr         =  1.00000e-06
    electron_maxstep = 200
    mixing_beta      =  7.00000e-01
    startingpot      = "atomic"
    startingwfc      = "atomic+random"
/


&IONS
    ion_dynamics = "bfgs"
/

&CELL
/

K_POINTS {gamma}

ATOMIC_SPECIES
Zn     65.39000  Zn_pbe_v1.uspp.F.UPF

ATOMIC_POSITIONS {angstrom}
Zn      1.218290   1.307170   0.754711
Zn      1.218290   3.921529   0.754711
Zn      1.218290   6.535889   0.754711
Zn      1.218290   9.150249   0.754711
Zn      1.218290  11.764609   0.754711
Zn      6.091451   1.307170   0.754711
Zn      6.091451   3.921529   0.754711
Zn      6.091451   6.535889   0.754711
Zn      6.091451   9.150249   0.754711
Zn      6.091451  11.764609   0.754711
Zn     10.964612   1.307170   0.754711
Zn     10.964612   3.921529   0.754711
Zn     10.964612   6.535889   0.754711
Zn     10.964612   9.150249   0.754711
Zn     10.964612  11.764609   0.754711
Zn     15.837773   1.307170   0.754711
Zn     15.837773   3.921529   0.754711
Zn     15.837773   6.535889   0.754711
Zn     15.837773   9.150249   0.754711
Zn     15.837773  11.764609   0.754711
Zn     20.710934   1.307170   0.754711
Zn     20.710934   3.921529   0.754711
Zn     20.710934   6.535889   0.754711
Zn     20.710934   9.150249   0.754711
Zn     20.710934  11.764609   0.754711
Zn      1.218290  -0.000012   3.018815
Zn      1.218290   2.614348   3.018815
Zn      1.218290   5.228708   3.018815
Zn      1.218290   7.843068   3.018815
Zn      1.218290  10.457427   3.018815
Zn      6.091451  -0.000012   3.018815
Zn      6.091451   2.614348   3.018815
Zn      6.091451   5.228708   3.018815
Zn      6.091451   7.843068   3.018815
Zn      6.091451  10.457427   3.018815
Zn     10.964612  -0.000012   3.018815
Zn     10.964612   2.614348   3.018815
Zn     10.964612   5.228708   3.018815
Zn     10.964612   7.843068   3.018815
Zn     10.964612  10.457427   3.018815
Zn     15.837773  -0.000012   3.018815
Zn     15.837773   2.614348   3.018815
Zn     15.837773   5.228708   3.018815
Zn     15.837773   7.843068   3.018815
Zn     15.837773  10.457427   3.018815
Zn     20.710934  -0.000012   3.018815
Zn     20.710934   2.614348   3.018815
Zn     20.710934   5.228708   3.018815
Zn     20.710934   7.843068   3.018815
Zn     20.710934  10.457427   3.018815
Zn      1.218290  -1.307176   5.282891
Zn      1.218290   1.307184   5.282891
Zn      1.218290   3.921543   5.282891
Zn      1.218290   6.535903   5.282891
Zn      1.218290   9.150263   5.282891
Zn      6.091451  -1.307176   5.282891
Zn      6.091451   1.307184   5.282891
Zn      6.091451   3.921543   5.282891
Zn      6.091451   6.535903   5.282891
Zn      6.091451   9.150263   5.282891
Zn     10.964612  -1.307176   5.282891
Zn     10.964612   1.307184   5.282891
Zn     10.964612   3.921543   5.282891
Zn     10.964612   6.535903   5.282891
Zn     10.964612   9.150263   5.282891
Zn     15.837773  -1.307176   5.282891
Zn     15.837773   1.307184   5.282891
Zn     15.837773   3.921543   5.282891
Zn     15.837773   6.535903   5.282891
Zn     15.837773   9.150263   5.282891
Zn     20.710934  -1.307176   5.282891
Zn     20.710934   1.307184   5.282891
Zn     20.710934   3.921543   5.282891
Zn     20.710934   6.535903   5.282891
Zn     20.710934   9.150263   5.282891
Zn      1.218290  -2.614357   7.546995
Zn      1.218290   0.000002   7.546995
Zn      1.218290   2.614362   7.546995
Zn      1.218290   5.228722   7.546995
Zn      1.218290   7.843082   7.546995
Zn      6.091451  -2.614357   7.546995
Zn      6.091451   0.000002   7.546995
Zn      6.091451   2.614362   7.546995
Zn      6.091451   5.228722   7.546995
Zn      6.091451   7.843082   7.546995
Zn     10.964612  -2.614357   7.546995
Zn     10.964612   0.000002   7.546995
Zn     10.964612   2.614362   7.546995
Zn     10.964612   5.228722   7.546995
Zn     10.964612   7.843082   7.546995
Zn     15.837773  -2.614357   7.546995
Zn     15.837773   0.000002   7.546995
Zn     15.837773   2.614362   7.546995
Zn     15.837773   5.228722   7.546995
Zn     15.837773   7.843082   7.546995
Zn     20.710934  -2.614357   7.546995
Zn     20.710934   0.000002   7.546995
Zn     20.710934   2.614362   7.546995
Zn     20.710934   5.228722   7.546995
Zn     20.710934   7.843082   7.546995
Zn      3.654871   0.000009   1.509393
Zn      3.654871   2.614369   1.509393
Zn      3.654871   5.228729   1.509393
Zn      3.654871   7.843088   1.509393
Zn      3.654871  10.457448   1.509393
Zn      8.528032   0.000009   1.509393
Zn      8.528032   2.614369   1.509393
Zn      8.528032   5.228729   1.509393
Zn      8.528032   7.843088   1.509393
Zn      8.528032  10.457448   1.509393
Zn     13.401193   0.000009   1.509393
Zn     13.401193   2.614369   1.509393
Zn     13.401193   5.228729   1.509393
Zn     13.401193   7.843088   1.509393
Zn     13.401193  10.457448   1.509393
Zn     18.274354   0.000009   1.509393
Zn     18.274354   2.614369   1.509393
Zn     18.274354   5.228729   1.509393
Zn     18.274354   7.843088   1.509393
Zn     18.274354  10.457448   1.509393
Zn     23.147515   0.000009   1.509393
Zn     23.147515   2.614369   1.509393
Zn     23.147515   5.228729   1.509393
Zn     23.147515   7.843088   1.509393
Zn     23.147515  10.457448   1.509393
Zn      3.654871  -1.307172   3.773497
Zn      3.654871   1.307188   3.773497
Zn      3.654871   3.921547   3.773497
Zn      3.654871   6.535907   3.773497
Zn      3.654871   9.150267   3.773497
Zn      8.528032  -1.307172   3.773497
Zn      8.528032   1.307188   3.773497
Zn      8.528032   3.921547   3.773497
Zn      8.528032   6.535907   3.773497
Zn      8.528032   9.150267   3.773497
Zn     13.401193  -1.307172   3.773497
Zn     13.401193   1.307188   3.773497
Zn     13.401193   3.921547   3.773497
Zn     13.401193   6.535907   3.773497
Zn     13.401193   9.150267   3.773497
Zn     18.274354  -1.307172   3.773497
Zn     18.274354   1.307188   3.773497
Zn     18.274354   3.921547   3.773497
Zn     18.274354   6.535907   3.773497
Zn     18.274354   9.150267   3.773497
Zn     23.147515  -1.307172   3.773497
Zn     23.147515   1.307188   3.773497
Zn     23.147515   3.921547   3.773497
Zn     23.147515   6.535907   3.773497
Zn     23.147515   9.150267   3.773497
Zn      3.654871  -2.614353   6.037602
Zn      3.654871   0.000006   6.037602
Zn      3.654871   2.614366   6.037602
Zn      3.654871   5.228726   6.037602
Zn      3.654871   7.843086   6.037602
Zn      8.528032  -2.614353   6.037602
Zn      8.528032   0.000006   6.037602
Zn      8.528032   2.614366   6.037602
Zn      8.528032   5.228726   6.037602
Zn      8.528032   7.843086   6.037602
Zn     13.401193  -2.614353   6.037602
Zn     13.401193   0.000006   6.037602
Zn     13.401193   2.614366   6.037602
Zn     13.401193   5.228726   6.037602
Zn     13.401193   7.843086   6.037602
Zn     18.274354  -2.614353   6.037602
Zn     18.274354   0.000006   6.037602
Zn     18.274354   2.614366   6.037602
Zn     18.274354   5.228726   6.037602
Zn     18.274354   7.843086   6.037602
Zn     23.147515  -2.614353   6.037602
Zn     23.147515   0.000006   6.037602
Zn     23.147515   2.614366   6.037602
Zn     23.147515   5.228726   6.037602
Zn     23.147515   7.843086   6.037602
Zn      3.654871  -3.921535   8.301706
Zn      3.654871  -1.307175   8.301706
Zn      3.654871   1.307185   8.301706
Zn      3.654871   3.921545   8.301706
Zn      3.654871   6.535905   8.301706
Zn      8.528032  -3.921535   8.301706
Zn      8.528032  -1.307175   8.301706
Zn      8.528032   1.307185   8.301706
Zn      8.528032   3.921545   8.301706
Zn      8.528032   6.535905   8.301706
Zn     13.401193  -3.921535   8.301706
Zn     13.401193  -1.307175   8.301706
Zn     13.401193   1.307185   8.301706
Zn     13.401193   3.921545   8.301706
Zn     13.401193   6.535905   8.301706
Zn     18.274354  -3.921535   8.301706
Zn     18.274354  -1.307175   8.301706
Zn     18.274354   1.307185   8.301706
Zn     18.274354   3.921545   8.301706
Zn     18.274354   6.535905   8.301706
Zn     23.147515  -3.921535   8.301706
Zn     23.147515  -1.307175   8.301706
Zn     23.147515   1.307185   8.301706
Zn     23.147515   3.921545   8.301706
Zn     23.147515   6.535905   8.301706

