! B3LYP def2-SVP OPT TightSCF D3BJ


%maxcore 4000

%pal
nprocs 28
end

* xyz 0 1
O        2.8515802119      0.7211638393      0.9366968446                 
O        2.7488933113     -0.9837853473     -0.3962714592                 
N        2.2347845702     -0.0541608210      0.2154706914                 
N       -3.3105216888      0.6859596170     -0.3344756169                 
C        0.7985883426      0.1410080764      0.0758159059                 
C       -1.9706220701      0.5173419310     -0.1942456137                 
C        0.1714001310      1.1891728575      0.7592428377                 
C        0.0590785394     -0.7223001474     -0.7414172657                 
C       -1.1950781899      1.3753768046      0.6266276238                 
C       -1.3061811485     -0.5373107901     -0.8749912795                 
H        0.7756151009      1.8435186923      1.3871337959                 
H        0.5779887452     -1.5282803173     -1.2596667730                 
H       -1.6866063934      2.1934209771      1.1597535408                 
H       -1.8996586210     -1.1994712209     -1.5069527892                 
H       -3.7817827867      1.4396974943      0.1441506716                 
H       -3.8453978105      0.0610271739     -0.9359960621                 
O       -3.2293368887      2.5469680834     -2.5382122231                 
H       -3.6133460500      2.0743096896     -1.7862868262                 
H       -3.9830842353      2.9851278925     -2.9578715912                 
*           

