! B3LYP def2-SVP OPT TightSCF D3BJ


%maxcore 4000

%pal
nprocs 28
end

* xyz 0 1
O        2.7210600761      1.0832376383     -0.0001510332                 
O        2.7210794396     -1.0832419814     -0.0004122870                 
N        2.1503728454     -0.0000218379     -0.0001593443                 
N       -3.4745380812      0.0000055801      0.0012848393                 
C        0.6905288595     -0.0000018501      0.0000891668                 
C       -2.1103810173     -0.0000001179      0.0004401593                 
C        0.0003351126      1.2162003143      0.0003383714                 
C        0.0003360811     -1.2162025009      0.0000061340                 
C       -1.3858459997      1.2163606335      0.0005047746                 
C       -1.3858468463     -1.2163598600      0.0001728853                 
H        0.5691142954      2.1455814069      0.0003548830                 
H        0.5691223088     -2.1455809175     -0.0002270924                 
H       -1.9290788518      2.1648181612      0.0007315711                 
H       -1.9290857576     -2.1648142635      0.0001370269                 
H       -3.9941298338      0.8654646063     -0.0030400889                 
H       -3.9941426307     -0.8654450113     -0.0032699658                 
O       -3.2183972414     -1.7883533786     -2.3112346892                 
H       -2.2675206983     -1.7632303891     -2.4847217106                 
H       -3.3746172201     -0.9655695071     -1.8279616494                 
*           

