&CONTROL
    calculation   = "relax"
    forc_conv_thr =  1.00000e-03
    max_seconds   =  1.72800e+05
    nstep         = 100
    pseudo_dir    = "/home/ys/qe-7.3.1/pseudo/Standard_solid-state_pseudopotentials_SSSP_1.3.0_PBE_efficiency"
    outdir = "/home/ys/Research/PSID_server_room/qe/zinc_hydrate_relax"
/

&SYSTEM
    a           =  1.30718e+01
    c           =  3.21829e+01
    degauss     =  1.00000e-02
    ecutrho     =  5.00000e+02
    ecutwfc     =  5.00000e+01
    ibrav       = 4
    nat         = 250
    ntyp        = 1
    occupations = "fixed"
/

&ELECTRONS
    conv_thr         =  1.00000e-06
    electron_maxstep = 200
    mixing_beta      =  7.00000e-01
    startingpot      = "atomic"
    startingwfc      = "atomic+random"
/

&IONS
    ion_dynamics = "bfgs"
/

&CELL
/

K_POINTS {gamma}

ATOMIC_SPECIES
Zn     65.39000  Zn_pbe_v1.uspp.F.UPF

ATOMIC_POSITIONS {angstrom}
Zn      0.000007   1.509398   1.218284
Zn     -1.307173   3.773500   1.218284
Zn     -2.614353   6.037602   1.218284
Zn     -3.921533   8.301704   1.218284
Zn     -5.228713  10.565806   1.218284
Zn      2.614367   1.509398   1.218284
Zn      1.307187   3.773500   1.218284
Zn      0.000007   6.037602   1.218284
Zn     -1.307173   8.301704   1.218284
Zn     -2.614353  10.565806   1.218284
Zn      5.228727   1.509398   1.218284
Zn      3.921547   3.773500   1.218284
Zn      2.614367   6.037602   1.218284
Zn      1.307187   8.301704   1.218284
Zn      0.000007  10.565806   1.218284
Zn      7.843087   1.509398   1.218284
Zn      6.535907   3.773500   1.218284
Zn      5.228727   6.037602   1.218284
Zn      3.921547   8.301704   1.218284
Zn      2.614367  10.565806   1.218284
Zn     10.457447   1.509398   1.218284
Zn      9.150267   3.773500   1.218284
Zn      7.843087   6.037602   1.218284
Zn      6.535907   8.301704   1.218284
Zn      5.228727  10.565806   1.218284
Zn      0.000007   1.509398   3.654884
Zn     -1.307173   3.773500   3.654884
Zn     -2.614353   6.037602   3.654884
Zn     -3.921533   8.301704   3.654884
Zn     -5.228713  10.565806   3.654884
Zn      2.614367   1.509398   3.654884
Zn      1.307187   3.773500   3.654884
Zn      0.000007   6.037602   3.654884
Zn     -1.307173   8.301704   3.654884
Zn     -2.614353  10.565806   3.654884
Zn      5.228727   1.509398   3.654884
Zn      3.921547   3.773500   3.654884
Zn      2.614367   6.037602   3.654884
Zn      1.307187   8.301704   3.654884
Zn      0.000007  10.565806   3.654884
Zn      7.843087   1.509398   3.654884
Zn      6.535907   3.773500   3.654884
Zn      5.228727   6.037602   3.654884
Zn      3.921547   8.301704   3.654884
Zn      2.614367  10.565806   3.654884
Zn     10.457447   1.509398   3.654884
Zn      9.150267   3.773500   3.654884
Zn      7.843087   6.037602   3.654884
Zn      6.535907   8.301704   3.654884
Zn      5.228727  10.565806   3.654884
Zn      0.000007   1.509398   6.091451
Zn     -1.307173   3.773500   6.091451
Zn     -2.614353   6.037602   6.091451
Zn     -3.921533   8.301704   6.091451
Zn     -5.228713  10.565806   6.091451
Zn      2.614367   1.509398   6.091451
Zn      1.307187   3.773500   6.091451
Zn      0.000007   6.037602   6.091451
Zn     -1.307173   8.301704   6.091451
Zn     -2.614353  10.565806   6.091451
Zn      5.228727   1.509398   6.091451
Zn      3.921547   3.773500   6.091451
Zn      2.614367   6.037602   6.091451
Zn      1.307187   8.301704   6.091451
Zn      0.000007  10.565806   6.091451
Zn      7.843087   1.509398   6.091451
Zn      6.535907   3.773500   6.091451
Zn      5.228727   6.037602   6.091451
Zn      3.921547   8.301704   6.091451
Zn      2.614367  10.565806   6.091451
Zn     10.457447   1.509398   6.091451
Zn      9.150267   3.773500   6.091451
Zn      7.843087   6.037602   6.091451
Zn      6.535907   8.301704   6.091451
Zn      5.228727  10.565806   6.091451
Zn      0.000007   1.509398   8.528019
Zn     -1.307173   3.773500   8.528019
Zn     -2.614353   6.037602   8.528019
Zn     -3.921533   8.301704   8.528019
Zn     -5.228713  10.565806   8.528019
Zn      2.614367   1.509398   8.528019
Zn      1.307187   3.773500   8.528019
Zn      0.000007   6.037602   8.528019
Zn     -1.307173   8.301704   8.528019
Zn     -2.614353  10.565806   8.528019
Zn      5.228727   1.509398   8.528019
Zn      3.921547   3.773500   8.528019
Zn      2.614367   6.037602   8.528019
Zn      1.307187   8.301704   8.528019
Zn      0.000007  10.565806   8.528019
Zn      7.843087   1.509398   8.528019
Zn      6.535907   3.773500   8.528019
Zn      5.228727   6.037602   8.528019
Zn      3.921547   8.301704   8.528019
Zn      2.614367  10.565806   8.528019
Zn     10.457447   1.509398   8.528019
Zn      9.150267   3.773500   8.528019
Zn      7.843087   6.037602   8.528019
Zn      6.535907   8.301704   8.528019
Zn      5.228727  10.565806   8.528019
Zn      0.000007   1.509398  10.964619
Zn     -1.307173   3.773500  10.964619
Zn     -2.614353   6.037602  10.964619
Zn     -3.921533   8.301704  10.964619
Zn     -5.228713  10.565806  10.964619
Zn      2.614367   1.509398  10.964619
Zn      1.307187   3.773500  10.964619
Zn      0.000007   6.037602  10.964619
Zn     -1.307173   8.301704  10.964619
Zn     -2.614353  10.565806  10.964619
Zn      5.228727   1.509398  10.964619
Zn      3.921547   3.773500  10.964619
Zn      2.614367   6.037602  10.964619
Zn      1.307187   8.301704  10.964619
Zn      0.000007  10.565806  10.964619
Zn      7.843087   1.509398  10.964619
Zn      6.535907   3.773500  10.964619
Zn      5.228727   6.037602  10.964619
Zn      3.921547   8.301704  10.964619
Zn      2.614367  10.565806  10.964619
Zn     10.457447   1.509398  10.964619
Zn      9.150267   3.773500  10.964619
Zn      7.843087   6.037602  10.964619
Zn      6.535907   8.301704  10.964619
Zn      5.228727  10.565806  10.964619
Zn      1.307173   0.754704   1.218284
Zn     -0.000007   3.018807   1.218284
Zn     -1.307187   5.282909   1.218284
Zn     -2.614367   7.547011   1.218284
Zn     -3.921547   9.811113   1.218284
Zn      3.921533   0.754704   1.218284
Zn      2.614353   3.018807   1.218284
Zn      1.307173   5.282909   1.218284
Zn     -0.000007   7.547011   1.218284
Zn     -1.307187   9.811113   1.218284
Zn      6.535893   0.754704   1.218284
Zn      5.228713   3.018807   1.218284
Zn      3.921533   5.282909   1.218284
Zn      2.614353   7.547011   1.218284
Zn      1.307173   9.811113   1.218284
Zn      9.150253   0.754704   1.218284
Zn      7.843073   3.018807   1.218284
Zn      6.535893   5.282909   1.218284
Zn      5.228713   7.547011   1.218284
Zn      3.921533   9.811113   1.218284
Zn     11.764613   0.754704   1.218284
Zn     10.457433   3.018807   1.218284
Zn      9.150253   5.282909   1.218284
Zn      7.843073   7.547011   1.218284
Zn      6.535893   9.811113   1.218284
Zn      1.307173   0.754704   3.654884
Zn     -0.000007   3.018807   3.654884
Zn     -1.307187   5.282909   3.654884
Zn     -2.614367   7.547011   3.654884
Zn     -3.921547   9.811113   3.654884
Zn      3.921533   0.754704   3.654884
Zn      2.614353   3.018807   3.654884
Zn      1.307173   5.282909   3.654884
Zn     -0.000007   7.547011   3.654884
Zn     -1.307187   9.811113   3.654884
Zn      6.535893   0.754704   3.654884
Zn      5.228713   3.018807   3.654884
Zn      3.921533   5.282909   3.654884
Zn      2.614353   7.547011   3.654884
Zn      1.307173   9.811113   3.654884
Zn      9.150253   0.754704   3.654884
Zn      7.843073   3.018807   3.654884
Zn      6.535893   5.282909   3.654884
Zn      5.228713   7.547011   3.654884
Zn      3.921533   9.811113   3.654884
Zn     11.764613   0.754704   3.654884
Zn     10.457433   3.018807   3.654884
Zn      9.150253   5.282909   3.654884
Zn      7.843073   7.547011   3.654884
Zn      6.535893   9.811113   3.654884
Zn      1.307173   0.754704   6.091451
Zn     -0.000007   3.018807   6.091451
Zn     -1.307187   5.282909   6.091451
Zn     -2.614367   7.547011   6.091451
Zn     -3.921547   9.811113   6.091451
Zn      3.921533   0.754704   6.091451
Zn      2.614353   3.018807   6.091451
Zn      1.307173   5.282909   6.091451
Zn     -0.000007   7.547011   6.091451
Zn     -1.307187   9.811113   6.091451
Zn      6.535893   0.754704   6.091451
Zn      5.228713   3.018807   6.091451
Zn      3.921533   5.282909   6.091451
Zn      2.614353   7.547011   6.091451
Zn      1.307173   9.811113   6.091451
Zn      9.150253   0.754704   6.091451
Zn      7.843073   3.018807   6.091451
Zn      6.535893   5.282909   6.091451
Zn      5.228713   7.547011   6.091451
Zn      3.921533   9.811113   6.091451
Zn     11.764613   0.754704   6.091451
Zn     10.457433   3.018807   6.091451
Zn      9.150253   5.282909   6.091451
Zn      7.843073   7.547011   6.091451
Zn      6.535893   9.811113   6.091451
Zn      1.307173   0.754704   8.528019
Zn     -0.000007   3.018807   8.528019
Zn     -1.307187   5.282909   8.528019
Zn     -2.614367   7.547011   8.528019
Zn     -3.921547   9.811113   8.528019
Zn      3.921533   0.754704   8.528019
Zn      2.614353   3.018807   8.528019
Zn      1.307173   5.282909   8.528019
Zn     -0.000007   7.547011   8.528019
Zn     -1.307187   9.811113   8.528019
Zn      6.535893   0.754704   8.528019
Zn      5.228713   3.018807   8.528019
Zn      3.921533   5.282909   8.528019
Zn      2.614353   7.547011   8.528019
Zn      1.307173   9.811113   8.528019
Zn      9.150253   0.754704   8.528019
Zn      7.843073   3.018807   8.528019
Zn      6.535893   5.282909   8.528019
Zn      5.228713   7.547011   8.528019
Zn      3.921533   9.811113   8.528019
Zn     11.764613   0.754704   8.528019
Zn     10.457433   3.018807   8.528019
Zn      9.150253   5.282909   8.528019
Zn      7.843073   7.547011   8.528019
Zn      6.535893   9.811113   8.528019
Zn      1.307173   0.754704  10.964619
Zn     -0.000007   3.018807  10.964619
Zn     -1.307187   5.282909  10.964619
Zn     -2.614367   7.547011  10.964619
Zn     -3.921547   9.811113  10.964619
Zn      3.921533   0.754704  10.964619
Zn      2.614353   3.018807  10.964619
Zn      1.307173   5.282909  10.964619
Zn     -0.000007   7.547011  10.964619
Zn     -1.307187   9.811113  10.964619
Zn      6.535893   0.754704  10.964619
Zn      5.228713   3.018807  10.964619
Zn      3.921533   5.282909  10.964619
Zn      2.614353   7.547011  10.964619
Zn      1.307173   9.811113  10.964619
Zn      9.150253   0.754704  10.964619
Zn      7.843073   3.018807  10.964619
Zn      6.535893   5.282909  10.964619
Zn      5.228713   7.547011  10.964619
Zn      3.921533   9.811113  10.964619
Zn     11.764613   0.754704  10.964619
Zn     10.457433   3.018807  10.964619
Zn      9.150253   5.282909  10.964619
Zn      7.843073   7.547011  10.964619
Zn      6.535893   9.811113  10.964619

