! B3LYP def2-SVP SP TightSCF ALLPOP KEEPDENS 

%maxcore 5000

%pal
nprocs 20
end

* xyz 0 1
  N          -2.86669329290360      0.38632637745803      0.19631242133056
  C           1.37190485288967      0.11990268085233      0.04785424719720
  C          -1.46346266771294      0.29861817110522      0.10546961594624
  C           0.57617891223437     -0.98538810846856      0.39384040104482
  C           0.71231217054191      1.31610344967012     -0.25889678061201
  C          -0.81314586807051     -0.90603320666791      0.43043532870321
  C          -0.68162567581616      1.41002922423720     -0.23550761877296
  C           2.87554438166575      0.00906684560623      0.00442670245016
  H           1.05874130381496     -1.93382178331140      0.64894247811750
  H           1.29874497337856      2.19890976069846     -0.52940181997790
  H          -1.41338585895038     -1.76108513964392      0.74816017178316
  H          -1.16717601091166      2.35784902783606     -0.48636342970619
  H           3.34665255985829      0.98803588190303     -0.17014906635214
  H           3.27827312581164     -0.39515488651588      0.94815758804884
  H           3.20663085052291     -0.66827320642310     -0.80178800890871
  H          -3.25642825987599      1.21722913802075     -0.24009749200443
  H          -3.34967796179111     -0.44578871169700     -0.13514186229503
  O          -3.17489753620415     -1.22693242248543      2.57487389979804
  H          -2.33071421970817     -1.11642583331983      3.03239133314838
  H          -3.20733853797336     -0.44441319885439      1.99354103606123             
*
