SimulationType                   MonteCarlo
NumberOfCycles                   0
NumberOfInitializationCycles     0
PrintEvery                       100
RestartFile                      no

Forcefield                       GarciaPerez2006ForceField

ChargeFromChargeEquilibration    yes
ChargeEquilibrationPeriodic      yes
ChargeEquilibrationEwald         yes
SymmetrizeFrameworkCharges       no

Framework           0
FrameworkName       [CoreMOF]QAVPIO_clean
UnitCells           6 4 3
ExternalTemperature 298.0
ExternalPressure    0.0
