&CONTROL
    calculation = "scf"
    max_seconds =  8.64000e+04
    pseudo_dir    = "/home/ys/qe-7.3.1/pseudo/Standard_solid-state_pseudopotentials_SSSP_1.3.0_PBE_efficiency"
    outdir = "/home/ys/Research/PSID_server_room/qe/zinc_surface/scf/zn_101_5layers_scf"
/

&SYSTEM
    a           =  1.42951e+01
    b           =  1.04574e+01
    c           =  2.51208e+01
    cosab       =  3.65770e-01
    cosac       = -7.03066e-02
    cosbc       = -3.65770e-01
    degauss     =  1.00000e-02
    ecutrho     =  5.00000e+02
    ecutwfc     =  5.00000e+01
    ibrav       = 14
    nat         = 64
    ntyp        = 1
    occupations = "smearing"
    smearing    = "gaussian"
/

&ELECTRONS
    conv_thr         =  1.00000e-06
    electron_maxstep = 200
    mixing_beta      =  7.00000e-01
    startingpot      = "atomic"
    startingwfc      = "atomic+random"
/

K_POINTS {gamma}

ATOMIC_SPECIES
Zn     65.39000  Zn_pbe_v1.uspp.F.UPF

ATOMIC_POSITIONS {angstrom}
Zn      1.786887   0.702252   0.276425
Zn      2.743144   3.135449   0.276425
Zn      3.699401   5.568647   0.276425
Zn      4.655658   8.001844   0.276425
Zn      5.360652   0.702252   0.276425
Zn      6.316909   3.135449   0.276425
Zn      7.273166   5.568647   0.276425
Zn      8.229423   8.001844   0.276425
Zn      8.934418   0.702252   0.276425
Zn      9.890675   3.135449   0.276425
Zn     10.846932   5.568647   0.276425
Zn     11.803189   8.001844   0.276425
Zn     12.508183   0.702252   0.276425
Zn     13.464440   3.135449   0.276425
Zn     14.420697   5.568647   0.276425
Zn     15.376954   8.001844   0.276425
Zn      2.491874   0.425190   3.040746
Zn      3.448131   2.858387   3.040746
Zn      4.404388   5.291584   3.040746
Zn      5.360645   7.724782   3.040746
Zn      6.065639   0.425190   3.040746
Zn      7.021896   2.858387   3.040746
Zn      7.978153   5.291584   3.040746
Zn      8.934410   7.724782   3.040746
Zn      9.639405   0.425190   3.040746
Zn     10.595662   2.858387   3.040746
Zn     11.551919   5.291584   3.040746
Zn     12.508176   7.724782   3.040746
Zn     13.213170   0.425190   3.040746
Zn     14.169427   2.858387   3.040746
Zn     15.125684   5.291584   3.040746
Zn     16.081941   7.724782   3.040746
Zn      3.448138   0.049369   1.935022
Zn      4.404395   2.482567   1.935022
Zn      5.360652   4.915764   1.935022
Zn      6.316909   7.348961   1.935022
Zn      7.021903   0.049369   1.935022
Zn      7.978160   2.482567   1.935022
Zn      8.934417   4.915764   1.935022
Zn      9.890674   7.348961   1.935022
Zn     10.595669   0.049369   1.935022
Zn     11.551926   2.482567   1.935022
Zn     12.508183   4.915764   1.935022
Zn     13.464440   7.348961   1.935022
Zn     14.169434   0.049369   1.935022
Zn     15.125691   2.482567   1.935022
Zn     16.081948   4.915764   1.935022
Zn     17.038205   7.348961   1.935022
Zn      0.830623   1.078072   1.382149
Zn      1.786880   3.511270   1.382149
Zn      2.743137   5.944467   1.382149
Zn      3.699394   8.377664   1.382149
Zn      4.404388   1.078072   1.382149
Zn      5.360645   3.511270   1.382149
Zn      6.316902   5.944467   1.382149
Zn      7.273159   8.377664   1.382149
Zn      7.978154   1.078072   1.382149
Zn      8.934411   3.511270   1.382149
Zn      9.890668   5.944467   1.382149
Zn     10.846925   8.377664   1.382149
Zn     11.551919   1.078072   1.382149
Zn     12.508176   3.511270   1.382149
Zn     13.464433   5.944467   1.382149
Zn     14.420690   8.377664   1.382149

