! B3LYP def2-SVP OPT NormalSCF ALLPOP KEEPDENS D3BJ

%pal
nprocs 28
end

%maxcore 5000

%scf
 SmearTemp 500 
end

* xyz -1 2
  O           0.23249747250981      1.89811844501955     -1.92388976332606
  O          -4.11921229071187     -1.44782152929071      1.19225290556566
  C           1.05390265158646      0.41678913099122     -0.24521481318289
  C          -0.30343265336730     -0.04847664579520      0.14371780497964
  C          -2.61672726045460     -0.62581672484244     -0.45321549162166
  C          -1.34749487044041     -0.16066871744701     -0.79219903904680
  C           3.48296951168554      0.30194311240709      0.13474281657556
  C           2.17585530957586     -0.10657242868259      0.40690798163722
  C           1.22954443687610      1.41027861035309     -1.27432568689071
  C          -0.59797832526058     -0.41194729436668      1.46458165258213
  C          -2.87042427393015     -0.99178132183739      0.87646677433692
  C          -3.73113726723083     -0.68935803160561     -1.47534438054417
  C           4.66161590547624     -0.31747901020817      0.85985031129720
  C           3.65023688273431      1.28628001765270     -0.85005876628729
  C          -1.85863143076536     -0.88424201100922      1.82779452532291
  C           2.57072469772536      1.82445129321708     -1.52969773977799
  C          -4.60065311647690      0.53964666828608     -1.42991327965241
  C           4.82118530350519     -1.78550266321859      0.57531948882351
  C          -5.89776333362006      0.55392956624520     -1.12460136729104
  C           4.83393958102357     -2.75774176057325      1.48857045225201
  H          -1.14520610300088      0.15584181084934     -1.81657151362634
  H           2.02331474372976     -0.89603363686249      1.15281784147784
  H           0.16984035097667     -0.30691893750423      2.23561557323586
  H          -3.28039272667595     -0.77082014075299     -2.47790873930900
  H          -4.34909774338905     -1.58567772553274     -1.31104685852887
  H           5.58124580884116      0.20514676932530      0.54226455932975
  H           4.58222886507423     -0.17005291505949      1.95205265019235
  H           4.66134046864604      1.63535607028994     -1.09469948315243
  H          -2.06377353925715     -1.15792296329137      2.86955866529498
  H           2.70796155442403      2.58972166408747     -2.30079428281441
  H          -4.08542181242033      1.48405305215390     -1.64775361080742
  H           4.90566007569239     -2.04893266897802     -0.48722216992818
  H           0.39045506902551      2.87375512963272     -2.90104612882464
  H          -4.14442215886424     -1.62684138356280      2.13590621443360
  H          -6.46820317758744      1.48696310984548     -1.09723471682333
  H          -6.43236314418918     -0.36891732912388     -0.87539556732407
  H           4.93526733615335     -3.80993789718210      1.20720452504443
  H           4.72965443254655     -2.53567614208315      2.55656377050862
  O           1.62784950455437      3.97554897357793     -3.88741281844717
  O           0.39611126527968      3.62128445487605     -3.67878129568326
*
