! B3LYP def2-SVP Opt TightSCF ALLPOP KEEPDENS D3BJ CPCM(Water)

%pal
nprocs 32
end

* xyz 2 1
Zn         0.69840        1.20920        1.03000
H          1.52870       -1.74360       -2.82080
O          0.99540       -0.98260       -2.47760
H          0.22930       -1.09620       -3.10020
H          0.94880        2.33720       -2.48310
H          0.94880        2.33720       -2.48310
O          1.18660        3.16200       -1.36630
O          1.18660        3.16200       -1.36630
H          2.57490        3.02020       -1.55820
H          2.57490        3.02020       -1.55820
H          1.66880        2.19860        0.58650
H          1.66880        2.19860        0.58650
O          1.90660        3.02340        1.70330
O          1.90660        3.02340        1.70330
H          3.29490        2.88160        1.51140
H          3.29490        2.88160        1.51140
H          0.50630       -1.30020        1.60700
H          0.50630       -1.30020        1.60700
O          0.74410       -0.47540        2.72380
O          0.74410       -0.47540        2.72380
H          2.13240       -0.61720        2.53190
H          2.13240       -0.61720        2.53190
H         -0.37870        1.62860        2.46380
H         -0.37870        1.62860        2.46380
O         -0.14090        2.45340        3.58060
O         -0.14090        2.45340        3.58060
H          1.24740        2.31160        3.38870
H          1.24740        2.31160        3.38870
H          0.86890       -0.18790       -1.25110
H          0.86890       -0.18790       -1.25110
O          1.10670        0.63690       -0.13430
O          1.10670        0.63690       -0.13430
H          2.49500        0.49510       -0.32620
H          2.49500        0.49510       -0.32620
*
