! B3LYP def2-SVP Opt TightSCF ALLPOP KEEPDENS D3BJ CPCM(WATER)

%pal
nprocs 30
end

* xyz 2 1
  Zn          1.01994068969050      0.90929699283428      1.13120960091320
  H          -1.02292091017138     -0.10453522622732     -0.26831504389550
  O          -0.87715386957812      0.70795536416758      0.24746376472793
  H          -1.60740138721062      0.73177531271219      0.88930533067741
  H           3.64946292186013      1.00549064949914      1.51087076393920
  O           2.88143122888440      1.03260248492820      2.10548545789577
  H           3.02972867034097      1.79762621501937      2.68618213047432
  H           0.68964964412255      2.99490784323767     -0.50824961502807
  O           1.16312029577888      2.85735488073469      0.32932147923052
  H           2.06130184891403      3.19671342244832      0.17636668041258
  H           0.20556472777393     -1.59963064853562      1.69549033520687
  O           0.80800228745371     -0.94440795293062      2.08408102630014
  H           1.63151067349032     -1.42551489525951      2.26842989440721
  H           0.20246958330257      1.48160787022712      3.63044074122844
  O           0.01740936673183      1.82716204422979      2.74234015267150
  H           0.18951048360265      2.78290537547324      2.79373794851503
  H           1.86038716354510     -0.92588934974872     -0.62245326148697
  O           2.03699093549326      0.01869645909013     -0.47524069059450
  H           1.95366564597525      0.43534315810004     -1.34945669559514
*
