&CONTROL
    calculation   = "relax"
    forc_conv_thr =  1.00000e-03
    max_seconds   =  1.72800e+05
    nstep         = 100
    pseudo_dir    = "/home/ys/qe-7.3.1/pseudo/Standard_solid-state_pseudopotentials_SSSP_1.3.0_PBE_efficiency"
    outdir = "/home/ys/Research/PSID_server_room/qe/zinc_surface_ABN.relax/Zn_100_ABN"
/

&SYSTEM
    a           =  1.46195e+01
    b           =  1.30718e+01
    c           =  2.83227e+01
    cosab       =  6.12323e-17
    cosac       =  6.12323e-17
    cosbc       = -5.00000e-01
    degauss     =  1.00000e-02
    ecutrho     =  5.00000e+02
    ecutwfc     =  5.00000e+01
    ibrav       = 14
    nat         = 75
    ntyp        = 4
    occupations = "smearing"
    smearing    = "gaussian"
/

&ELECTRONS
    conv_thr         =  1.00000e-06
    electron_maxstep = 200
    mixing_beta      =  7.00000e-01
    startingpot      = "atomic"
    startingwfc      = "atomic+random"
/

&IONS
    ion_dynamics = "bfgs"
/

&CELL
/

K_POINTS {gamma}

ATOMIC_SPECIES
Zn     65.39000  Zn_pbe_v1.uspp.F.UPF
C      12.01070  C.pbe-n-kjpaw_psl.1.0.0.UPF
N      14.00674  N.pbe-n-radius_5.UPF
H       1.00794  H.pbe-rrkjus_psl.1.0.0.UPF

ATOMIC_POSITIONS {angstrom}
Zn      1.218285   1.307171   0.754708
Zn      1.218285   3.921531   0.754708
Zn      1.218285   6.535891   0.754708
Zn      1.218285   9.150251   0.754708
Zn      1.218285  11.764611   0.754708
Zn      6.091456   1.307171   0.754708
Zn      6.091456   3.921531   0.754708
Zn      6.091456   6.535891   0.754708
Zn      6.091456   9.150251   0.754708
Zn      6.091456  11.764611   0.754708
Zn     10.964612   1.307171   0.754708
Zn     10.964612   3.921531   0.754708
Zn     10.964612   6.535891   0.754708
Zn     10.964612   9.150251   0.754708
Zn     10.964612  11.764611   0.754708
Zn      1.218285  -0.000008   3.018809
Zn      1.218285   2.614352   3.018809
Zn      1.218285   5.228712   3.018809
Zn      1.218285   7.843072   3.018809
Zn      1.218285  10.457432   3.018809
Zn      6.091456  -0.000008   3.018809
Zn      6.091456   2.614352   3.018809
Zn      6.091456   5.228712   3.018809
Zn      6.091456   7.843072   3.018809
Zn      6.091456  10.457432   3.018809
Zn     10.964612  -0.000008   3.018809
Zn     10.964612   2.614352   3.018809
Zn     10.964612   5.228712   3.018809
Zn     10.964612   7.843072   3.018809
Zn     10.964612  10.457432   3.018809
Zn      3.654871   0.000010   1.509392
Zn      3.654871   2.614370   1.509392
Zn      3.654871   5.228730   1.509392
Zn      3.654871   7.843090   1.509392
Zn      3.654871  10.457450   1.509392
Zn      8.528026   0.000010   1.509392
Zn      8.528026   2.614370   1.509392
Zn      8.528026   5.228730   1.509392
Zn      8.528026   7.843090   1.509392
Zn      8.528026  10.457450   1.509392
Zn     13.401197   0.000010   1.509392
Zn     13.401197   2.614370   1.509392
Zn     13.401197   5.228730   1.509392
Zn     13.401197   7.843090   1.509392
Zn     13.401197  10.457450   1.509392
Zn      3.654871  -1.307169   3.773493
Zn      3.654871   1.307191   3.773493
Zn      3.654871   3.921551   3.773493
Zn      3.654871   6.535911   3.773493
Zn      3.654871   9.150271   3.773493
Zn      8.528026  -1.307169   3.773493
Zn      8.528026   1.307191   3.773493
Zn      8.528026   3.921551   3.773493
Zn      8.528026   6.535911   3.773493
Zn      8.528026   9.150271   3.773493
Zn     13.401197  -1.307169   3.773493
Zn     13.401197   1.307191   3.773493
Zn     13.401197   3.921551   3.773493
Zn     13.401197   6.535911   3.773493
Zn     13.401197   9.150271   3.773493
C       8.020891   2.902472  11.130899
C       8.106459   3.300831   9.766444
C       7.225357   4.267213   9.242129
C       9.074064   2.737212   8.911342
C       7.307753   4.655652   7.914737
C       9.158155   3.124109   7.583630
C       8.276440   4.092414   7.055759
N       7.950747   2.575689  12.249729
N       8.358499   4.475151   5.744015
H       7.731688   5.167633   5.362847
H       9.049869   4.076647   5.126861
H       9.762451   1.988629   9.302150
H       6.471782   4.712239   9.891072
H       9.914406   2.676278   6.936331
H       6.616427   5.405793   7.526529

