! B3LYP def2-SVP OPT TightSCF ALLPOP KEEPDENS D3BJ

%pal
nprocs 4
end

* xyz 0 1
N         -2.81540        0.00030       -0.00010
C          1.38480        0.00000       -0.00010
C         -1.40500       -0.00020        0.00000
C          0.68740       -1.20800        0.00000
C          0.68730        1.20790        0.00000
C         -0.70750       -1.20810        0.00010
C         -0.70760        1.20780        0.00010
C          2.87610        0.00020        0.00000
H          1.21950       -2.15560       -0.00180
H          1.21930        2.15560       -0.00180
H         -1.23950       -2.15600       -0.00030
H         -1.23970        2.15580       -0.00030
H          3.27100        0.87910        0.52090
H          3.27150       -0.88160        0.51550
H          3.25180        0.00330       -1.02790
H         -3.32130        0.87590       -0.00090
H         -3.32190       -0.87510       -0.00090
*
