! B3LYP def2-SVP OPT TightSCF D3BJ


%maxcore 4000

%pal
nprocs 28
end

* xyz 0 1
  N          -2.87104173596186      0.34857161574013      0.18080104635216
  C           1.36949827470330      0.11293059212615      0.05488663566935
  C          -1.46568417513602      0.27774106977076      0.09584671959079
  C           0.57865548424361     -0.99620165146379      0.39778291187446
  C           0.70537400634702      1.30692313669075     -0.25315097696278
  C          -0.81173518835766     -0.92191239023182      0.42790035495026
  C          -0.68886963901334      1.39383055201072     -0.23922483550433
  C           2.87333781217269      0.01030682736669      0.00558663765204
  H           1.06091884966825     -1.94243057563754      0.66063236389993
  H           1.28896540597753      2.19348899624604     -0.51730103720657
  H          -1.40682570503648     -1.77948566243095      0.75014858750716
  H          -1.17916052157378      2.33869347005666     -0.49132086207536
  H           3.34612015894116      1.00444593854340      0.00537816027253
  H           3.26852734738357     -0.55240210197942      0.86699403753801
  H           3.21162456320220     -0.51554098915304     -0.90505207998530
  H          -3.27381420994963      1.20281346704162     -0.19254168826471
  H          -3.33748681918195     -0.46114431454625     -0.21807084542551
  O          -3.18038802865458     -1.12082153650020      2.66926340774017
  H          -2.29636110730763     -0.99520658999832      3.03947417045131
  H          -3.19121753166639     -0.48584579365159      1.92902643692635                
*
