! B3LYP def2-SVP SP TightSCF ALLPOP KEEPDENS

%maxcore 5000

%pal
nprocs 20
end

* xyz 0 1
  N           2.57569900862416      4.47033165870688      0.84416841849188
  N          -4.16821430747644      3.73172853145887      0.50197548361131
  C           1.22250078737340      4.33878923328171      0.77776486235019
  C           0.57620625032904      3.23837363802865      1.39531273774590
  C           0.41702878432930      5.27633863062684      0.08705668331283
  C          -1.59488147380637      4.02158356448956      0.63121346806611
  C          -0.79872694759681      3.08526457007108      1.32205801067673
  C          -0.95867257137649      5.11912613920259      0.01646135833996
  C          -3.01394190283021      3.86169836955679      0.55812304626566
  H           1.18890204061066      2.51399366355187      1.93395135014151
  H           0.89095388609897      6.13433192751799     -0.39722427987909
  H          -1.27677336338696      2.23032297381215      1.80500471166892
  H          -1.56152110146796      5.85375130688637     -0.52143795557964
  H           3.02054816466643      5.29888418023931      0.47662287258035
  H           3.12153264712212      3.82743341744885      1.41545186704554
  O           3.70740155355572      2.39371537822691      2.59860373270928
  H           3.59421127346778      1.49199822686891      2.26648189411762
  H           3.27619727176363      2.38688459002447      3.46482173833484
*
