%BLOCK LATTICE_CART
ang    # angstrom units
  16.085300000000    0.000000000000     0.000000000000   
  8.042633872421     15.448768430014    0.000000000000   
  8.042618349740     3.605575343750     17.244859680814  
%ENDBLOCK LATTICE_CART

%BLOCK POSITIONS_FRAC
Cu     0.516700000000     0.924280000000     0.049780000000   
Cu     0.456800000000     0.055760000000     0.547560000000   
Cu     0.490760000000     0.575720000000     0.450220000000   
Cu     0.060120000000     0.444240000000     0.952440000000   
Cu     0.483300000000     0.075720000000     0.950220000000   
Cu     0.543200000000     0.944240000000     0.452440000000   
Cu     0.509240000000     0.424280000000     0.549780000000   
Cu     0.939880000000     0.555760000000     0.047560000000   
H      0.817300000000     0.786100000000     0.922900000000   
H      0.974100000000     0.733300000000     0.838900000000   
H      0.928500000000     0.970800000000     0.694800000000   
H      0.766700000000     0.025300000000     0.777300000000   
H      0.213600000000     0.752900000000     0.613100000000   
H      0.345700000000     0.801100000000     0.554100000000   
H      0.197300000000     0.990100000000     0.682500000000   
H      0.066500000000     0.941000000000     0.739800000000   
H      0.618500000000     0.189100000000     0.017700000000   
H      0.667200000000     0.247400000000     0.077800000000   
H      0.629700000000     0.057200000000     0.271200000000   
H      0.578400000000     0.001000000000     0.210400000000   
H      0.838000000000     0.165700000000     0.109700000000   
H      0.930700000000     0.254000000000     0.054800000000   
H      0.744600000000     0.412800000000     0.206400000000   
H      0.642000000000     0.331600000000     0.257800000000   
H      0.526300000000     0.713900000000     0.577100000000   
H      0.546300000000     0.766700000000     0.661100000000   
H      0.594100000000     0.529200000000     0.805200000000   
H      0.569300000000     0.474700000000     0.722700000000   
H      0.579600000000     0.747100000000     0.886900000000   
H      0.700900000000     0.698900000000     0.945900000000   
H      0.869900000000     0.509900000000     0.817500000000   
H      0.747300000000     0.559000000000     0.760200000000   
H      0.825300000000     0.310900000000     0.482300000000   
H      0.992400000000     0.252600000000     0.422200000000   
H      0.958100000000     0.442800000000     0.228800000000   
H      0.789800000000     0.499000000000     0.289600000000   
H      0.113400000000     0.334300000000     0.390300000000   
H      0.239500000000     0.246000000000     0.445200000000   
H      0.363800000000     0.087200000000     0.293600000000   
H      0.231400000000     0.168400000000     0.242200000000   
H      0.182700000000     0.213900000000     0.077100000000   
H      0.025900000000     0.266700000000     0.161100000000   
H      0.071500000000     0.029200000000     0.305200000000   
H      0.233300000000     0.974700000000     0.222700000000   
H      0.786400000000     0.247100000000     0.386900000000   
H      0.654300000000     0.198900000000     0.445900000000   
H      0.802700000000     0.009900000000     0.317500000000   
H      0.933500000000     0.059000000000     0.260200000000   
H      0.381500000000     0.810900000000     0.982300000000   
H      0.332800000000     0.752600000000     0.922200000000   
H      0.370300000000     0.942800000000     0.728800000000   
H      0.421600000000     0.999000000000     0.789600000000   
H      0.162000000000     0.834300000000     0.890300000000   
H      0.069300000000     0.746000000000     0.945200000000   
H      0.255400000000     0.587200000000     0.793600000000   
H      0.358000000000     0.668400000000     0.742200000000   
H      0.473700000000     0.286100000000     0.422900000000   
H      0.453700000000     0.233300000000     0.338900000000   
H      0.405900000000     0.470800000000     0.194800000000   
H      0.430700000000     0.525300000000     0.277300000000   
H      0.420400000000     0.252900000000     0.113100000000   
H      0.299100000000     0.301100000000     0.054100000000   
H      0.130100000000     0.490100000000     0.182500000000   
H      0.252700000000     0.441000000000     0.239800000000   
H      0.174700000000     0.689100000000     0.517700000000   
H      0.007600000000     0.747400000000     0.577800000000   
H      0.041900000000     0.557200000000     0.771200000000   
H      0.210200000000     0.501000000000     0.710400000000   
H      0.886600000000     0.665700000000     0.609700000000   
H      0.760500000000     0.754000000000     0.554800000000   
H      0.636200000000     0.912800000000     0.706400000000   
H      0.768600000000     0.831600000000     0.757800000000   
C      0.672800000000     0.944800000000     0.909800000000   
C      0.774900000000     0.911200000000     0.858800000000   
C      0.838600000000     0.824300000000     0.876100000000   
C      0.931900000000     0.792900000000     0.826500000000   
C      0.964300000000     0.847400000000     0.759000000000   
C      0.905000000000     0.933100000000     0.740900000000   
C      0.808600000000     0.965900000000     0.790500000000   
C      0.127300000000     0.845500000000     0.678500000000   
C      0.210000000000     0.802300000000     0.626100000000   
C      0.289000000000     0.830100000000     0.591700000000   
C      0.284500000000     0.901200000000     0.612600000000   
C      0.201000000000     0.942000000000     0.667600000000   
C      0.123000000000     0.913400000000     0.701200000000   
C      0.369700000000     0.933800000000     0.572600000000   
C      0.592800000000     0.089200000000     0.108200000000   
C      0.619800000000     0.162900000000     0.069700000000   
C      0.648000000000     0.198000000000     0.105000000000   
C      0.648100000000     0.159700000000     0.182500000000   
C      0.625500000000     0.085100000000     0.220100000000   
C      0.596300000000     0.051400000000     0.183400000000   
C      0.729800000000     0.242300000000     0.187500000000   
C      0.817200000000     0.217500000000     0.128100000000   
C      0.872400000000     0.269000000000     0.096800000000   
C      0.845400000000     0.343300000000     0.124700000000   
C      0.761900000000     0.364200000000     0.185200000000   
C      0.701400000000     0.315100000000     0.216900000000   
C      0.904900000000     0.400500000000     0.084500000000   
C      0.558600000000     0.054300000000     0.069300000000   
C      0.527400000000     0.555200000000     0.590200000000   
C      0.544900000000     0.588800000000     0.641200000000   
C      0.539000000000     0.675700000000     0.623900000000   
C      0.551300000000     0.707100000000     0.673500000000   
C      0.570700000000     0.652600000000     0.741000000000   
C      0.579000000000     0.566900000000     0.759100000000   
C      0.565000000000     0.534100000000     0.709500000000   
C      0.651300000000     0.654500000000     0.821500000000   
C      0.638400000000     0.697700000000     0.873900000000   
C      0.710800000000     0.669900000000     0.908300000000   
C      0.798300000000     0.598800000000     0.887400000000   
C      0.810600000000     0.558000000000     0.832400000000   
C      0.737600000000     0.586600000000     0.798800000000   
C      0.876100000000     0.566200000000     0.927400000000   
C      0.790200000000     0.410800000000     0.391800000000   
C      0.852400000000     0.337100000000     0.430300000000   
C      0.951000000000     0.302000000000     0.395000000000   
C      0.990300000000     0.340300000000     0.317500000000   
C      0.930700000000     0.414900000000     0.279900000000   
C      0.831100000000     0.448600000000     0.316600000000   
C      0.159600000000     0.257700000000     0.312500000000   
C      0.162800000000     0.282500000000     0.371900000000   
C      0.238200000000     0.231000000000     0.403200000000   
C      0.313400000000     0.156700000000     0.375300000000   
C      0.311300000000     0.135800000000     0.314800000000   
C      0.233400000000     0.184900000000     0.283100000000   
C      0.389900000000     0.099500000000     0.415500000000   
C      0.682200000000     0.445700000000     0.430700000000   
C      0.327200000000     0.055200000000     0.090200000000   
C      0.225100000000     0.088800000000     0.141200000000   
C      0.161400000000     0.175700000000     0.123900000000   
C      0.068100000000     0.207100000000     0.173500000000   
C      0.035700000000     0.152600000000     0.241000000000   
C      0.095000000000     0.066900000000     0.259100000000   
C      0.191400000000     0.034100000000     0.209500000000   
C      0.872700000000     0.154500000000     0.321500000000   
C      0.790000000000     0.197700000000     0.373900000000   
C      0.711000000000     0.169900000000     0.408300000000   
C      0.715500000000     0.098800000000     0.387400000000   
C      0.799000000000     0.058000000000     0.332400000000   
C      0.877000000000     0.086600000000     0.298800000000   
C      0.630300000000     0.066200000000     0.427400000000   
C      0.407200000000     0.910800000000     0.891800000000   
C      0.380200000000     0.837100000000     0.930300000000   
C      0.352000000000     0.802000000000     0.895000000000   
C      0.351900000000     0.840300000000     0.817500000000   
C      0.374500000000     0.914900000000     0.779900000000   
C      0.403700000000     0.948600000000     0.816600000000   
C      0.270200000000     0.757700000000     0.812500000000   
C      0.182800000000     0.782500000000     0.871900000000   
C      0.127600000000     0.731000000000     0.903200000000   
C      0.154600000000     0.656700000000     0.875300000000   
C      0.238100000000     0.635800000000     0.814800000000   
C      0.298600000000     0.684900000000     0.783100000000   
C      0.095100000000     0.599500000000     0.915500000000   
C      0.441400000000     0.945700000000     0.930700000000   
C      0.472600000000     0.444800000000     0.409800000000   
C      0.455100000000     0.411200000000     0.358800000000   
C      0.461000000000     0.324300000000     0.376100000000   
C      0.448700000000     0.292900000000     0.326500000000   
C      0.429300000000     0.347400000000     0.259000000000   
C      0.421000000000     0.433100000000     0.240900000000   
C      0.435000000000     0.465900000000     0.290500000000   
C      0.348700000000     0.345500000000     0.178500000000   
C      0.361600000000     0.302300000000     0.126100000000   
C      0.289200000000     0.330100000000     0.091700000000   
C      0.201700000000     0.401200000000     0.112600000000   
C      0.189400000000     0.442000000000     0.167600000000   
C      0.262400000000     0.413400000000     0.201200000000   
C      0.123900000000     0.433800000000     0.072600000000   
C      0.209800000000     0.589200000000     0.608200000000   
C      0.147600000000     0.662900000000     0.569700000000   
C      0.049000000000     0.698000000000     0.605000000000   
C      0.009700000000     0.659700000000     0.682500000000   
C      0.069300000000     0.585100000000     0.720100000000   
C      0.168900000000     0.551400000000     0.683400000000   
C      0.840400000000     0.742300000000     0.687500000000   
C      0.837200000000     0.717500000000     0.628100000000   
C      0.761800000000     0.769000000000     0.596800000000   
C      0.686600000000     0.843300000000     0.624700000000   
C      0.688700000000     0.864200000000     0.685200000000   
C      0.766600000000     0.815100000000     0.716900000000   
C      0.610100000000     0.900500000000     0.584500000000   
C      0.317800000000     0.554300000000     0.569300000000   
O      0.647200000000     0.894200000000     0.972600000000   
O      0.619110000000     0.022480000000     0.887700000000   
O      0.056100000000     0.808200000000     0.710600000000   
O      0.364100000000     0.993200000000     0.598400000000   
O      0.437700000000     0.898300000000     0.517300000000   
O      0.558700000000     0.976400000000     0.098000000000   
O      0.669400000000     0.193100000000     0.224500000000   
O      0.979700000000     0.375800000000     0.028000000000   
O      0.876100000000     0.469400000000     0.108600000000   
O      0.532600000000     0.105100000000     0.010700000000   
O      0.514000000000     0.605800000000     0.527400000000   
O      0.529290000000     0.477520000000     0.612300000000   
O      0.574900000000     0.691800000000     0.789400000000   
O      0.955700000000     0.506800000000     0.901600000000   
O      0.853300000000     0.601700000000     0.982700000000   
O      0.633100000000     0.523600000000     0.402000000000   
O      0.087000000000     0.306900000000     0.275500000000   
O      0.383500000000     0.124200000000     0.472000000000   
O      0.454100000000     0.030600000000     0.391400000000   
O      0.648400000000     0.394900000000     0.489300000000   
O      0.352800000000     0.105800000000     0.027400000000   
O      0.380890000000     0.977520000000     0.112300000000   
O      0.943900000000     0.191800000000     0.289400000000   
O      0.635900000000     0.006800000000     0.401600000000   
O      0.562300000000     0.101700000000     0.482700000000   
O      0.441300000000     0.023600000000     0.902000000000   
O      0.330600000000     0.806900000000     0.775500000000   
O      0.020300000000     0.624200000000     0.972000000000   
O      0.123900000000     0.530600000000     0.891400000000   
O      0.467400000000     0.894900000000     0.989300000000   
O      0.486000000000     0.394200000000     0.472600000000   
O      0.470710000000     0.522480000000     0.387700000000   
O      0.425100000000     0.308200000000     0.210600000000   
O      0.044300000000     0.493200000000     0.098400000000   
O      0.146700000000     0.398300000000     0.017300000000   
O      0.366900000000     0.476400000000     0.598000000000   
O      0.913000000000     0.693100000000     0.724500000000   
O      0.616500000000     0.875800000000     0.528000000000   
O      0.545900000000     0.969400000000     0.608600000000   
O      0.351600000000     0.605100000000     0.510700000000   
%ENDBLOCK POSITIONS_FRAC
