&CONTROL
    calculation   = "relax"
    forc_conv_thr =  1.00000e-03
    max_seconds   =  1.72800e+05
    nstep         = 100
    pseudo_dir    = "/home/ys/qe-7.3.1/pseudo/Standard_solid-state_pseudopotentials_SSSP_1.3.0_PBE_efficiency"
    outdir = "/home/ys/Research/PSID_server_room/qe/zinc_surface_ABN.relax/Zn_002_ABN"
/

&SYSTEM
    a           =  1.04574e+01
    c           =  2.48732e+01
    degauss     =  1.00000e-02
    ecutrho     =  5.00000e+02
    ecutwfc     =  5.00000e+01
    ibrav       = 4
    nat         = 79
    ntyp        = 4
    occupations = "smearing"
    smearing    = "gaussian"
/

&ELECTRONS
    conv_thr         =  1.00000e-06
    electron_maxstep = 200
    mixing_beta      =  7.00000e-01
    startingpot      = "atomic"
    startingwfc      = "atomic+random"
/

&IONS
    ion_dynamics = "bfgs"
/

&CELL
/

K_POINTS {gamma}

ATOMIC_SPECIES
Zn     65.39000  Zn_pbe_v1.uspp.F.UPF
C      12.01070  C.pbe-n-kjpaw_psl.1.0.0.UPF
N      14.00674  N.pbe-n-radius_5.UPF
H       1.00794  H.pbe-rrkjus_psl.1.0.0.UPF

ATOMIC_POSITIONS {angstrom}
Zn     -0.000016   1.509404   1.218287
Zn     -1.307185   3.773507   1.218287
Zn     -2.614365   6.037609   1.218287
Zn     -3.921556   8.301711   1.218287
Zn      2.614344   1.509404   1.218287
Zn      1.307175   3.773507   1.218287
Zn     -0.000005   6.037609   1.218287
Zn     -1.307196   8.301711   1.218287
Zn      5.228704   1.509404   1.218287
Zn      3.921535   3.773507   1.218287
Zn      2.614355   6.037609   1.218287
Zn      1.307164   8.301711   1.218287
Zn      7.843064   1.509404   1.218287
Zn      6.535895   3.773507   1.218287
Zn      5.228715   6.037609   1.218287
Zn      3.921524   8.301711   1.218287
Zn     -0.000016   1.509404   3.654862
Zn     -1.307185   3.773507   3.654862
Zn     -2.614365   6.037609   3.654862
Zn     -3.921556   8.301711   3.654862
Zn      2.614344   1.509404   3.654862
Zn      1.307175   3.773507   3.654862
Zn     -0.000005   6.037609   3.654862
Zn     -1.307196   8.301711   3.654862
Zn      5.228704   1.509404   3.654862
Zn      3.921535   3.773507   3.654862
Zn      2.614355   6.037609   3.654862
Zn      1.307164   8.301711   3.654862
Zn      7.843064   1.509404   3.654862
Zn      6.535895   3.773507   3.654862
Zn      5.228715   6.037609   3.654862
Zn      3.921524   8.301711   3.654862
Zn      1.307196   0.754698   1.218287
Zn      0.000005   3.018800   1.218287
Zn     -1.307175   5.282902   1.218287
Zn     -2.614350   7.546995   1.218287
Zn      3.921556   0.754698   1.218287
Zn      2.614365   3.018800   1.218287
Zn      1.307185   5.282902   1.218287
Zn      0.000010   7.546995   1.218287
Zn      6.535916   0.754698   1.218287
Zn      5.228725   3.018800   1.218287
Zn      3.921545   5.282902   1.218287
Zn      2.614370   7.546995   1.218287
Zn      9.150276   0.754698   1.218287
Zn      7.843085   3.018800   1.218287
Zn      6.535905   5.282902   1.218287
Zn      5.228730   7.546995   1.218287
Zn      1.307196   0.754698   3.654862
Zn      0.000005   3.018800   3.654862
Zn     -1.307175   5.282902   3.654862
Zn     -2.614350   7.546995   3.654862
Zn      3.921556   0.754698   3.654862
Zn      2.614365   3.018800   3.654862
Zn      1.307185   5.282902   3.654862
Zn      0.000010   7.546995   3.654862
Zn      6.535916   0.754698   3.654862
Zn      5.228725   3.018800   3.654862
Zn      3.921545   5.282902   3.654862
Zn      2.614370   7.546995   3.654862
Zn      9.150276   0.754698   3.654862
Zn      7.843085   3.018800   3.654862
Zn      6.535905   5.282902   3.654862
Zn      5.228730   7.546995   3.654862
C       3.332253   2.319600  11.271845
C       3.445225   2.581439   9.876685
C       2.393609   3.201377   9.173197
C       4.611051   2.226210   9.169740
C       2.502481   3.456713   7.815794
C       4.721979   2.480523   7.812312
C       3.669625   3.101757   7.105018
N       3.239663   2.104782  12.415861
N       3.778106   3.353190   5.763783
H       3.029468   3.798149   5.254605
H       4.610596   3.102753   5.252018
H       5.432844   1.746048   9.699911
H       1.485736   3.482053   9.706179
H       5.633015   2.198099   7.281518
H       1.677180   3.937826   7.287786

