%BLOCK LATTICE_CART
ang    # angstrom units
  18.651000000000    0.000000000000     0.000000000000   
  9.325500000000     16.152239805984    0.000000000000   
  9.325500000000     5.384079935328     15.228477730883  
%ENDBLOCK LATTICE_CART

%BLOCK POSITIONS_FRAC
Cu     0.034930000000     0.250000000000     0.250000000000   
Cu     0.250000000000     0.034930000000     0.465070000000   
Cu     0.250000000000     0.465070000000     0.034930000000   
Cu     0.465070000000     0.250000000000     0.250000000000   
Cu     0.034930000000     0.250000000000     0.465070000000   
Cu     0.250000000000     0.465070000000     0.250000000000   
Cu     0.250000000000     0.034930000000     0.250000000000   
Cu     0.465070000000     0.250000000000     0.034930000000   
Cu     0.034930000000     0.465070000000     0.250000000000   
Cu     0.250000000000     0.250000000000     0.034930000000   
Cu     0.250000000000     0.250000000000     0.465070000000   
Cu     0.465070000000     0.034930000000     0.250000000000   
H      0.386300000000     0.233700000000     0.386300000000   
H      0.233700000000     0.386300000000     0.493700000000   
H      0.386300000000     0.493700000000     0.386300000000   
H      0.493700000000     0.386300000000     0.233700000000   
H      0.386300000000     0.386300000000     0.493700000000   
H      0.233700000000     0.493700000000     0.386300000000   
H      0.386300000000     0.386300000000     0.233700000000   
H      0.493700000000     0.233700000000     0.386300000000   
H      0.386300000000     0.493700000000     0.233700000000   
H      0.233700000000     0.386300000000     0.386300000000   
H      0.386300000000     0.233700000000     0.493700000000   
H      0.493700000000     0.386300000000     0.386300000000   
H      0.266300000000     0.113700000000     0.113700000000   
H      0.113700000000     0.266300000000     0.006300000000   
H      0.006300000000     0.113700000000     0.113700000000   
H      0.113700000000     0.006300000000     0.266300000000   
H      0.113700000000     0.113700000000     0.006300000000   
H      0.006300000000     0.266300000000     0.113700000000   
H      0.113700000000     0.113700000000     0.266300000000   
H      0.266300000000     0.006300000000     0.113700000000   
H      0.006300000000     0.113700000000     0.266300000000   
H      0.113700000000     0.266300000000     0.113700000000   
H      0.266300000000     0.113700000000     0.006300000000   
H      0.113700000000     0.006300000000     0.113700000000   
C      0.465450000000     0.237130000000     0.331970000000   
C      0.443700000000     0.233560000000     0.379040000000   
C      0.237130000000     0.465450000000     0.465450000000   
C      0.233560000000     0.443700000000     0.443700000000   
C      0.331970000000     0.465450000000     0.465450000000   
C      0.379040000000     0.443700000000     0.443700000000   
C      0.465450000000     0.331970000000     0.237130000000   
C      0.443700000000     0.379040000000     0.233560000000   
C      0.465450000000     0.331970000000     0.465450000000   
C      0.443700000000     0.379040000000     0.443700000000   
C      0.237130000000     0.465450000000     0.331970000000   
C      0.233560000000     0.443700000000     0.379040000000   
C      0.331970000000     0.465450000000     0.237130000000   
C      0.379040000000     0.443700000000     0.233560000000   
C      0.465450000000     0.237130000000     0.465450000000   
C      0.443700000000     0.233560000000     0.443700000000   
C      0.465450000000     0.465450000000     0.237130000000   
C      0.443700000000     0.443700000000     0.233560000000   
C      0.237130000000     0.331970000000     0.465450000000   
C      0.233560000000     0.379040000000     0.443700000000   
C      0.331970000000     0.237130000000     0.465450000000   
C      0.379040000000     0.233560000000     0.443700000000   
C      0.465450000000     0.465450000000     0.331970000000   
C      0.443700000000     0.443700000000     0.379040000000   
C      0.262870000000     0.034550000000     0.168030000000   
C      0.266440000000     0.056300000000     0.120960000000   
C      0.034550000000     0.262870000000     0.034550000000   
C      0.056300000000     0.266440000000     0.056300000000   
C      0.034550000000     0.168030000000     0.034550000000   
C      0.056300000000     0.120960000000     0.056300000000   
C      0.168030000000     0.034550000000     0.262870000000   
C      0.120960000000     0.056300000000     0.266440000000   
C      0.168030000000     0.034550000000     0.034550000000   
C      0.120960000000     0.056300000000     0.056300000000   
C      0.034550000000     0.262870000000     0.168030000000   
C      0.056300000000     0.266440000000     0.120960000000   
C      0.034550000000     0.168030000000     0.262870000000   
C      0.056300000000     0.120960000000     0.266440000000   
C      0.262870000000     0.034550000000     0.034550000000   
C      0.266440000000     0.056300000000     0.056300000000   
C      0.034550000000     0.034550000000     0.262870000000   
C      0.056300000000     0.056300000000     0.266440000000   
C      0.168030000000     0.262870000000     0.034550000000   
C      0.120960000000     0.266440000000     0.056300000000   
C      0.262870000000     0.168030000000     0.034550000000   
C      0.266440000000     0.120960000000     0.056300000000   
C      0.034550000000     0.034550000000     0.168030000000   
C      0.056300000000     0.056300000000     0.120960000000   
C      0.400750000000     0.233610000000     0.400750000000   
C      0.233610000000     0.400750000000     0.464890000000   
C      0.400750000000     0.464890000000     0.400750000000   
C      0.464890000000     0.400750000000     0.233610000000   
C      0.400750000000     0.400750000000     0.464890000000   
C      0.233610000000     0.464890000000     0.400750000000   
C      0.400750000000     0.400750000000     0.233610000000   
C      0.464890000000     0.233610000000     0.400750000000   
C      0.400750000000     0.464890000000     0.233610000000   
C      0.233610000000     0.400750000000     0.400750000000   
C      0.400750000000     0.233610000000     0.464890000000   
C      0.464890000000     0.400750000000     0.400750000000   
C      0.266390000000     0.099250000000     0.099250000000   
C      0.099250000000     0.266390000000     0.035110000000   
C      0.035110000000     0.099250000000     0.099250000000   
C      0.099250000000     0.035110000000     0.266390000000   
C      0.099250000000     0.099250000000     0.035110000000   
C      0.035110000000     0.266390000000     0.099250000000   
C      0.099250000000     0.099250000000     0.266390000000   
C      0.266390000000     0.035110000000     0.099250000000   
C      0.035110000000     0.099250000000     0.266390000000   
C      0.099250000000     0.266390000000     0.099250000000   
C      0.266390000000     0.099250000000     0.035110000000   
C      0.099250000000     0.035110000000     0.099250000000   
O      0.003700000000     0.239340000000     0.313230000000   
O      0.239340000000     0.003700000000     0.443730000000   
O      0.313230000000     0.443730000000     0.003700000000   
O      0.443730000000     0.313230000000     0.239340000000   
O      0.003700000000     0.313230000000     0.443730000000   
O      0.239340000000     0.443730000000     0.313230000000   
O      0.313230000000     0.003700000000     0.239340000000   
O      0.443730000000     0.239340000000     0.003700000000   
O      0.003700000000     0.443730000000     0.239340000000   
O      0.239340000000     0.313230000000     0.003700000000   
O      0.313230000000     0.239340000000     0.443730000000   
O      0.443730000000     0.003700000000     0.313230000000   
O      0.260660000000     0.496300000000     0.186770000000   
O      0.496300000000     0.260660000000     0.056270000000   
O      0.056270000000     0.186770000000     0.496300000000   
O      0.186770000000     0.056270000000     0.260660000000   
O      0.186770000000     0.496300000000     0.056270000000   
O      0.056270000000     0.260660000000     0.186770000000   
O      0.496300000000     0.186770000000     0.260660000000   
O      0.260660000000     0.056270000000     0.496300000000   
O      0.056270000000     0.496300000000     0.260660000000   
O      0.186770000000     0.260660000000     0.496300000000   
O      0.260660000000     0.186770000000     0.056270000000   
O      0.496300000000     0.056270000000     0.186770000000   
O      0.496300000000     0.260660000000     0.186770000000   
O      0.260660000000     0.496300000000     0.056270000000   
O      0.186770000000     0.056270000000     0.496300000000   
O      0.056270000000     0.186770000000     0.260660000000   
O      0.496300000000     0.186770000000     0.056270000000   
O      0.260660000000     0.056270000000     0.186770000000   
O      0.186770000000     0.496300000000     0.260660000000   
O      0.056270000000     0.260660000000     0.496300000000   
O      0.496300000000     0.056270000000     0.260660000000   
O      0.260660000000     0.186770000000     0.496300000000   
O      0.186770000000     0.260660000000     0.056270000000   
O      0.056270000000     0.496300000000     0.186770000000   
O      0.239340000000     0.003700000000     0.313230000000   
O      0.003700000000     0.239340000000     0.443730000000   
O      0.443730000000     0.313230000000     0.003700000000   
O      0.313230000000     0.443730000000     0.239340000000   
O      0.313230000000     0.003700000000     0.443730000000   
O      0.443730000000     0.239340000000     0.313230000000   
O      0.003700000000     0.313230000000     0.239340000000   
O      0.239340000000     0.443730000000     0.003700000000   
O      0.443730000000     0.003700000000     0.239340000000   
O      0.313230000000     0.239340000000     0.003700000000   
O      0.239340000000     0.313230000000     0.443730000000   
O      0.003700000000     0.443730000000     0.313230000000   
Cu     0.034930000000     0.250000000000     0.750000000000   
Cu     0.250000000000     0.034930000000     0.965070000000   
Cu     0.250000000000     0.465070000000     0.534930000000   
Cu     0.465070000000     0.250000000000     0.750000000000   
Cu     0.034930000000     0.250000000000     0.965070000000   
Cu     0.250000000000     0.465070000000     0.750000000000   
Cu     0.250000000000     0.034930000000     0.750000000000   
Cu     0.465070000000     0.250000000000     0.534930000000   
Cu     0.034930000000     0.465070000000     0.750000000000   
Cu     0.250000000000     0.250000000000     0.534930000000   
Cu     0.250000000000     0.250000000000     0.965070000000   
Cu     0.465070000000     0.034930000000     0.750000000000   
H      0.386300000000     0.233700000000     0.886300000000   
H      0.233700000000     0.386300000000     0.993700000000   
H      0.386300000000     0.493700000000     0.886300000000   
H      0.493700000000     0.386300000000     0.733700000000   
H      0.386300000000     0.386300000000     0.993700000000   
H      0.233700000000     0.493700000000     0.886300000000   
H      0.386300000000     0.386300000000     0.733700000000   
H      0.493700000000     0.233700000000     0.886300000000   
H      0.386300000000     0.493700000000     0.733700000000   
H      0.233700000000     0.386300000000     0.886300000000   
H      0.386300000000     0.233700000000     0.993700000000   
H      0.493700000000     0.386300000000     0.886300000000   
H      0.266300000000     0.113700000000     0.613700000000   
H      0.113700000000     0.266300000000     0.506300000000   
H      0.006300000000     0.113700000000     0.613700000000   
H      0.113700000000     0.006300000000     0.766300000000   
H      0.113700000000     0.113700000000     0.506300000000   
H      0.006300000000     0.266300000000     0.613700000000   
H      0.113700000000     0.113700000000     0.766300000000   
H      0.266300000000     0.006300000000     0.613700000000   
H      0.006300000000     0.113700000000     0.766300000000   
H      0.113700000000     0.266300000000     0.613700000000   
H      0.266300000000     0.113700000000     0.506300000000   
H      0.113700000000     0.006300000000     0.613700000000   
C      0.465450000000     0.237130000000     0.831970000000   
C      0.443700000000     0.233560000000     0.879040000000   
C      0.237130000000     0.465450000000     0.965450000000   
C      0.233560000000     0.443700000000     0.943700000000   
C      0.331970000000     0.465450000000     0.965450000000   
C      0.379040000000     0.443700000000     0.943700000000   
C      0.465450000000     0.331970000000     0.737130000000   
C      0.443700000000     0.379040000000     0.733560000000   
C      0.465450000000     0.331970000000     0.965450000000   
C      0.443700000000     0.379040000000     0.943700000000   
C      0.237130000000     0.465450000000     0.831970000000   
C      0.233560000000     0.443700000000     0.879040000000   
C      0.331970000000     0.465450000000     0.737130000000   
C      0.379040000000     0.443700000000     0.733560000000   
C      0.465450000000     0.237130000000     0.965450000000   
C      0.443700000000     0.233560000000     0.943700000000   
C      0.465450000000     0.465450000000     0.737130000000   
C      0.443700000000     0.443700000000     0.733560000000   
C      0.237130000000     0.331970000000     0.965450000000   
C      0.233560000000     0.379040000000     0.943700000000   
C      0.331970000000     0.237130000000     0.965450000000   
C      0.379040000000     0.233560000000     0.943700000000   
C      0.465450000000     0.465450000000     0.831970000000   
C      0.443700000000     0.443700000000     0.879040000000   
C      0.262870000000     0.034550000000     0.668030000000   
C      0.266440000000     0.056300000000     0.620960000000   
C      0.034550000000     0.262870000000     0.534550000000   
C      0.056300000000     0.266440000000     0.556300000000   
C      0.034550000000     0.168030000000     0.534550000000   
C      0.056300000000     0.120960000000     0.556300000000   
C      0.168030000000     0.034550000000     0.762870000000   
C      0.120960000000     0.056300000000     0.766440000000   
C      0.168030000000     0.034550000000     0.534550000000   
C      0.120960000000     0.056300000000     0.556300000000   
C      0.034550000000     0.262870000000     0.668030000000   
C      0.056300000000     0.266440000000     0.620960000000   
C      0.034550000000     0.168030000000     0.762870000000   
C      0.056300000000     0.120960000000     0.766440000000   
C      0.262870000000     0.034550000000     0.534550000000   
C      0.266440000000     0.056300000000     0.556300000000   
C      0.034550000000     0.034550000000     0.762870000000   
C      0.056300000000     0.056300000000     0.766440000000   
C      0.168030000000     0.262870000000     0.534550000000   
C      0.120960000000     0.266440000000     0.556300000000   
C      0.262870000000     0.168030000000     0.534550000000   
C      0.266440000000     0.120960000000     0.556300000000   
C      0.034550000000     0.034550000000     0.668030000000   
C      0.056300000000     0.056300000000     0.620960000000   
C      0.400750000000     0.233610000000     0.900750000000   
C      0.233610000000     0.400750000000     0.964890000000   
C      0.400750000000     0.464890000000     0.900750000000   
C      0.464890000000     0.400750000000     0.733610000000   
C      0.400750000000     0.400750000000     0.964890000000   
C      0.233610000000     0.464890000000     0.900750000000   
C      0.400750000000     0.400750000000     0.733610000000   
C      0.464890000000     0.233610000000     0.900750000000   
C      0.400750000000     0.464890000000     0.733610000000   
C      0.233610000000     0.400750000000     0.900750000000   
C      0.400750000000     0.233610000000     0.964890000000   
C      0.464890000000     0.400750000000     0.900750000000   
C      0.266390000000     0.099250000000     0.599250000000   
C      0.099250000000     0.266390000000     0.535110000000   
C      0.035110000000     0.099250000000     0.599250000000   
C      0.099250000000     0.035110000000     0.766390000000   
C      0.099250000000     0.099250000000     0.535110000000   
C      0.035110000000     0.266390000000     0.599250000000   
C      0.099250000000     0.099250000000     0.766390000000   
C      0.266390000000     0.035110000000     0.599250000000   
C      0.035110000000     0.099250000000     0.766390000000   
C      0.099250000000     0.266390000000     0.599250000000   
C      0.266390000000     0.099250000000     0.535110000000   
C      0.099250000000     0.035110000000     0.599250000000   
O      0.003700000000     0.239340000000     0.813230000000   
O      0.239340000000     0.003700000000     0.943730000000   
O      0.313230000000     0.443730000000     0.503700000000   
O      0.443730000000     0.313230000000     0.739340000000   
O      0.003700000000     0.313230000000     0.943730000000   
O      0.239340000000     0.443730000000     0.813230000000   
O      0.313230000000     0.003700000000     0.739340000000   
O      0.443730000000     0.239340000000     0.503700000000   
O      0.003700000000     0.443730000000     0.739340000000   
O      0.239340000000     0.313230000000     0.503700000000   
O      0.313230000000     0.239340000000     0.943730000000   
O      0.443730000000     0.003700000000     0.813230000000   
O      0.260660000000     0.496300000000     0.686770000000   
O      0.496300000000     0.260660000000     0.556270000000   
O      0.056270000000     0.186770000000     0.996300000000   
O      0.186770000000     0.056270000000     0.760660000000   
O      0.186770000000     0.496300000000     0.556270000000   
O      0.056270000000     0.260660000000     0.686770000000   
O      0.496300000000     0.186770000000     0.760660000000   
O      0.260660000000     0.056270000000     0.996300000000   
O      0.056270000000     0.496300000000     0.760660000000   
O      0.186770000000     0.260660000000     0.996300000000   
O      0.260660000000     0.186770000000     0.556270000000   
O      0.496300000000     0.056270000000     0.686770000000   
O      0.496300000000     0.260660000000     0.686770000000   
O      0.260660000000     0.496300000000     0.556270000000   
O      0.186770000000     0.056270000000     0.996300000000   
O      0.056270000000     0.186770000000     0.760660000000   
O      0.496300000000     0.186770000000     0.556270000000   
O      0.260660000000     0.056270000000     0.686770000000   
O      0.186770000000     0.496300000000     0.760660000000   
O      0.056270000000     0.260660000000     0.996300000000   
O      0.496300000000     0.056270000000     0.760660000000   
O      0.260660000000     0.186770000000     0.996300000000   
O      0.186770000000     0.260660000000     0.556270000000   
O      0.056270000000     0.496300000000     0.686770000000   
O      0.239340000000     0.003700000000     0.813230000000   
O      0.003700000000     0.239340000000     0.943730000000   
O      0.443730000000     0.313230000000     0.503700000000   
O      0.313230000000     0.443730000000     0.739340000000   
O      0.313230000000     0.003700000000     0.943730000000   
O      0.443730000000     0.239340000000     0.813230000000   
O      0.003700000000     0.313230000000     0.739340000000   
O      0.239340000000     0.443730000000     0.503700000000   
O      0.443730000000     0.003700000000     0.739340000000   
O      0.313230000000     0.239340000000     0.503700000000   
O      0.239340000000     0.313230000000     0.943730000000   
O      0.003700000000     0.443730000000     0.813230000000   
Cu     0.034930000000     0.750000000000     0.250000000000   
Cu     0.250000000000     0.534930000000     0.465070000000   
Cu     0.250000000000     0.965070000000     0.034930000000   
Cu     0.465070000000     0.750000000000     0.250000000000   
Cu     0.034930000000     0.750000000000     0.465070000000   
Cu     0.250000000000     0.965070000000     0.250000000000   
Cu     0.250000000000     0.534930000000     0.250000000000   
Cu     0.465070000000     0.750000000000     0.034930000000   
Cu     0.034930000000     0.965070000000     0.250000000000   
Cu     0.250000000000     0.750000000000     0.034930000000   
Cu     0.250000000000     0.750000000000     0.465070000000   
Cu     0.465070000000     0.534930000000     0.250000000000   
H      0.386300000000     0.733700000000     0.386300000000   
H      0.233700000000     0.886300000000     0.493700000000   
H      0.386300000000     0.993700000000     0.386300000000   
H      0.493700000000     0.886300000000     0.233700000000   
H      0.386300000000     0.886300000000     0.493700000000   
H      0.233700000000     0.993700000000     0.386300000000   
H      0.386300000000     0.886300000000     0.233700000000   
H      0.493700000000     0.733700000000     0.386300000000   
H      0.386300000000     0.993700000000     0.233700000000   
H      0.233700000000     0.886300000000     0.386300000000   
H      0.386300000000     0.733700000000     0.493700000000   
H      0.493700000000     0.886300000000     0.386300000000   
H      0.266300000000     0.613700000000     0.113700000000   
H      0.113700000000     0.766300000000     0.006300000000   
H      0.006300000000     0.613700000000     0.113700000000   
H      0.113700000000     0.506300000000     0.266300000000   
H      0.113700000000     0.613700000000     0.006300000000   
H      0.006300000000     0.766300000000     0.113700000000   
H      0.113700000000     0.613700000000     0.266300000000   
H      0.266300000000     0.506300000000     0.113700000000   
H      0.006300000000     0.613700000000     0.266300000000   
H      0.113700000000     0.766300000000     0.113700000000   
H      0.266300000000     0.613700000000     0.006300000000   
H      0.113700000000     0.506300000000     0.113700000000   
C      0.465450000000     0.737130000000     0.331970000000   
C      0.443700000000     0.733560000000     0.379040000000   
C      0.237130000000     0.965450000000     0.465450000000   
C      0.233560000000     0.943700000000     0.443700000000   
C      0.331970000000     0.965450000000     0.465450000000   
C      0.379040000000     0.943700000000     0.443700000000   
C      0.465450000000     0.831970000000     0.237130000000   
C      0.443700000000     0.879040000000     0.233560000000   
C      0.465450000000     0.831970000000     0.465450000000   
C      0.443700000000     0.879040000000     0.443700000000   
C      0.237130000000     0.965450000000     0.331970000000   
C      0.233560000000     0.943700000000     0.379040000000   
C      0.331970000000     0.965450000000     0.237130000000   
C      0.379040000000     0.943700000000     0.233560000000   
C      0.465450000000     0.737130000000     0.465450000000   
C      0.443700000000     0.733560000000     0.443700000000   
C      0.465450000000     0.965450000000     0.237130000000   
C      0.443700000000     0.943700000000     0.233560000000   
C      0.237130000000     0.831970000000     0.465450000000   
C      0.233560000000     0.879040000000     0.443700000000   
C      0.331970000000     0.737130000000     0.465450000000   
C      0.379040000000     0.733560000000     0.443700000000   
C      0.465450000000     0.965450000000     0.331970000000   
C      0.443700000000     0.943700000000     0.379040000000   
C      0.262870000000     0.534550000000     0.168030000000   
C      0.266440000000     0.556300000000     0.120960000000   
C      0.034550000000     0.762870000000     0.034550000000   
C      0.056300000000     0.766440000000     0.056300000000   
C      0.034550000000     0.668030000000     0.034550000000   
C      0.056300000000     0.620960000000     0.056300000000   
C      0.168030000000     0.534550000000     0.262870000000   
C      0.120960000000     0.556300000000     0.266440000000   
C      0.168030000000     0.534550000000     0.034550000000   
C      0.120960000000     0.556300000000     0.056300000000   
C      0.034550000000     0.762870000000     0.168030000000   
C      0.056300000000     0.766440000000     0.120960000000   
C      0.034550000000     0.668030000000     0.262870000000   
C      0.056300000000     0.620960000000     0.266440000000   
C      0.262870000000     0.534550000000     0.034550000000   
C      0.266440000000     0.556300000000     0.056300000000   
C      0.034550000000     0.534550000000     0.262870000000   
C      0.056300000000     0.556300000000     0.266440000000   
C      0.168030000000     0.762870000000     0.034550000000   
C      0.120960000000     0.766440000000     0.056300000000   
C      0.262870000000     0.668030000000     0.034550000000   
C      0.266440000000     0.620960000000     0.056300000000   
C      0.034550000000     0.534550000000     0.168030000000   
C      0.056300000000     0.556300000000     0.120960000000   
C      0.400750000000     0.733610000000     0.400750000000   
C      0.233610000000     0.900750000000     0.464890000000   
C      0.400750000000     0.964890000000     0.400750000000   
C      0.464890000000     0.900750000000     0.233610000000   
C      0.400750000000     0.900750000000     0.464890000000   
C      0.233610000000     0.964890000000     0.400750000000   
C      0.400750000000     0.900750000000     0.233610000000   
C      0.464890000000     0.733610000000     0.400750000000   
C      0.400750000000     0.964890000000     0.233610000000   
C      0.233610000000     0.900750000000     0.400750000000   
C      0.400750000000     0.733610000000     0.464890000000   
C      0.464890000000     0.900750000000     0.400750000000   
C      0.266390000000     0.599250000000     0.099250000000   
C      0.099250000000     0.766390000000     0.035110000000   
C      0.035110000000     0.599250000000     0.099250000000   
C      0.099250000000     0.535110000000     0.266390000000   
C      0.099250000000     0.599250000000     0.035110000000   
C      0.035110000000     0.766390000000     0.099250000000   
C      0.099250000000     0.599250000000     0.266390000000   
C      0.266390000000     0.535110000000     0.099250000000   
C      0.035110000000     0.599250000000     0.266390000000   
C      0.099250000000     0.766390000000     0.099250000000   
C      0.266390000000     0.599250000000     0.035110000000   
C      0.099250000000     0.535110000000     0.099250000000   
O      0.003700000000     0.739340000000     0.313230000000   
O      0.239340000000     0.503700000000     0.443730000000   
O      0.313230000000     0.943730000000     0.003700000000   
O      0.443730000000     0.813230000000     0.239340000000   
O      0.003700000000     0.813230000000     0.443730000000   
O      0.239340000000     0.943730000000     0.313230000000   
O      0.313230000000     0.503700000000     0.239340000000   
O      0.443730000000     0.739340000000     0.003700000000   
O      0.003700000000     0.943730000000     0.239340000000   
O      0.239340000000     0.813230000000     0.003700000000   
O      0.313230000000     0.739340000000     0.443730000000   
O      0.443730000000     0.503700000000     0.313230000000   
O      0.260660000000     0.996300000000     0.186770000000   
O      0.496300000000     0.760660000000     0.056270000000   
O      0.056270000000     0.686770000000     0.496300000000   
O      0.186770000000     0.556270000000     0.260660000000   
O      0.186770000000     0.996300000000     0.056270000000   
O      0.056270000000     0.760660000000     0.186770000000   
O      0.496300000000     0.686770000000     0.260660000000   
O      0.260660000000     0.556270000000     0.496300000000   
O      0.056270000000     0.996300000000     0.260660000000   
O      0.186770000000     0.760660000000     0.496300000000   
O      0.260660000000     0.686770000000     0.056270000000   
O      0.496300000000     0.556270000000     0.186770000000   
O      0.496300000000     0.760660000000     0.186770000000   
O      0.260660000000     0.996300000000     0.056270000000   
O      0.186770000000     0.556270000000     0.496300000000   
O      0.056270000000     0.686770000000     0.260660000000   
O      0.496300000000     0.686770000000     0.056270000000   
O      0.260660000000     0.556270000000     0.186770000000   
O      0.186770000000     0.996300000000     0.260660000000   
O      0.056270000000     0.760660000000     0.496300000000   
O      0.496300000000     0.556270000000     0.260660000000   
O      0.260660000000     0.686770000000     0.496300000000   
O      0.186770000000     0.760660000000     0.056270000000   
O      0.056270000000     0.996300000000     0.186770000000   
O      0.239340000000     0.503700000000     0.313230000000   
O      0.003700000000     0.739340000000     0.443730000000   
O      0.443730000000     0.813230000000     0.003700000000   
O      0.313230000000     0.943730000000     0.239340000000   
O      0.313230000000     0.503700000000     0.443730000000   
O      0.443730000000     0.739340000000     0.313230000000   
O      0.003700000000     0.813230000000     0.239340000000   
O      0.239340000000     0.943730000000     0.003700000000   
O      0.443730000000     0.503700000000     0.239340000000   
O      0.313230000000     0.739340000000     0.003700000000   
O      0.239340000000     0.813230000000     0.443730000000   
O      0.003700000000     0.943730000000     0.313230000000   
Cu     0.034930000000     0.750000000000     0.750000000000   
Cu     0.250000000000     0.534930000000     0.965070000000   
Cu     0.250000000000     0.965070000000     0.534930000000   
Cu     0.465070000000     0.750000000000     0.750000000000   