%BLOCK LATTICE_CART
ang    # angstrom units
  38.988100000000    0.000000000000     0.000000000000   
 -19.494050000000    33.764685045288    0.000000000000   
  0.000000000000     0.000000000000     22.296200000000  
%ENDBLOCK LATTICE_CART

%BLOCK POSITIONS_FRAC
Mn     0.663920000000     0.738240000000     0.092360000000   
Mn     0.580010000000     0.655630000000     0.033780000000   
O      0.394610000000     0.919900000000     0.997620000000   
O      0.373480000000     0.897570000000     0.089700000000   
O      0.683420000000     0.946990000000     0.914770000000   
O      0.716820000000     0.008450000000     0.945600000000   
O      0.667820000000     0.047180000000     0.129430000000   
O      0.610380000000     0.002120000000     0.167890000000   
O      0.571840000000     0.704280000000     0.010380000000   
O      0.612680000000     0.742570000000     0.083650000000   
C      0.588460000000     0.735160000000     0.042670000000   
C      0.577540000000     0.766140000000     0.026330000000   
C      0.555820000000     0.763160000000     0.973640000000   
H      0.547800000000     0.741900000000     0.947500000000   
C      0.547000000000     0.792710000000     0.962340000000   
H      0.532900000000     0.791100000000     0.927800000000   
C      0.558180000000     0.824280000000     0.999850000000   
C      0.579270000000     0.826580000000     0.049370000000   
H      0.587000000000     0.847900000000     0.075200000000   
C      0.589840000000     0.798370000000     0.063190000000   
H      0.605100000000     0.801300000000     0.097000000000   
C      0.546600000000     0.855630000000     0.986490000000   
H      0.560500000000     0.869800000000     0.950600000000   
H      0.518500000000     0.842200000000     0.977700000000   
C      0.526540000000     0.872680000000     0.079630000000   
H      0.540600000000     0.885500000000     0.116100000000   
H      0.514800000000     0.844400000000     0.085700000000   
C      0.493900000000     0.881520000000     0.071910000000   
C      0.466250000000     0.873140000000     0.114640000000   
H      0.468100000000     0.862300000000     0.150800000000   
C      0.435180000000     0.880410000000     0.105780000000   
H      0.416300000000     0.873500000000     0.135800000000   
C      0.431570000000     0.896750000000     0.056110000000   
C      0.458820000000     0.906630000000     0.010500000000   
H      0.456800000000     0.918200000000     0.975100000000   
C      0.489380000000     0.898570000000     0.019670000000   
H      0.507900000000     0.904900000000     0.989200000000   
C      0.590750000000     0.920760000000     0.034370000000   
C      0.596720000000     0.949090000000     0.077330000000   
H      0.576700000000     0.943700000000     0.104900000000   
C      0.631220000000     0.984730000000     0.080100000000   
C      0.660930000000     0.993280000000     0.037360000000   
H      0.684200000000     0.017700000000     0.037500000000   
C      0.655110000000     0.965200000000     0.995550000000   
C      0.621030000000     0.929330000000     0.994300000000   
H      0.618200000000     0.910500000000     0.966200000000   
C      0.397600000000     0.905370000000     0.048510000000   
C      0.686690000000     0.973740000000     0.949210000000   
C      0.636920000000     0.013810000000     0.129450000000   
N      0.554610000000     0.883880000000     0.032990000000   
Mn     0.330590000000     0.071570000000     0.425690000000   
Mn     0.246670000000     0.988970000000     0.367120000000   
O      0.061280000000     0.253230000000     0.330950000000   
O      0.040150000000     0.230900000000     0.423030000000   
O      0.350090000000     0.280320000000     0.248100000000   
O      0.383490000000     0.341780000000     0.278930000000   
O      0.334490000000     0.380510000000     0.462760000000   
O      0.277050000000     0.335450000000     0.501220000000   
O      0.238510000000     0.037610000000     0.343710000000   
O      0.279350000000     0.075900000000     0.416980000000   
C      0.255130000000     0.068490000000     0.376000000000   
C      0.244210000000     0.099470000000     0.359660000000   
C      0.222490000000     0.096490000000     0.306970000000   
H      0.214470000000     0.075230000000     0.280830000000   
C      0.213670000000     0.126040000000     0.295670000000   
H      0.199570000000     0.124430000000     0.261130000000   
C      0.224850000000     0.157610000000     0.333180000000   
C      0.245940000000     0.159910000000     0.382700000000   
H      0.253670000000     0.181230000000     0.408530000000   
C      0.256510000000     0.131700000000     0.396520000000   
H      0.271770000000     0.134630000000     0.430330000000   
C      0.213270000000     0.188960000000     0.319820000000   
H      0.227170000000     0.203130000000     0.283930000000   
H      0.185170000000     0.175530000000     0.311030000000   
C      0.193210000000     0.206010000000     0.412960000000   
H      0.207270000000     0.218830000000     0.449430000000   
H      0.181470000000     0.177730000000     0.419030000000   
C      0.160570000000     0.214850000000     0.405240000000   
C      0.132920000000     0.206470000000     0.447970000000   
H      0.134770000000     0.195630000000     0.484130000000   
C      0.101850000000     0.213740000000     0.439110000000   
H      0.082970000000     0.206830000000     0.469130000000   
C      0.098240000000     0.230080000000     0.389440000000   
C      0.125490000000     0.239960000000     0.343830000000   
H      0.123470000000     0.251530000000     0.308430000000   
C      0.156050000000     0.231900000000     0.353000000000   
H      0.174570000000     0.238230000000     0.322530000000   
C      0.257420000000     0.254090000000     0.367700000000   
C      0.263390000000     0.282420000000     0.410660000000   
H      0.243370000000     0.277030000000     0.438230000000   
C      0.297890000000     0.318060000000     0.413430000000   
C      0.327600000000     0.326610000000     0.370690000000   
H      0.350870000000     0.351030000000     0.370830000000   
C      0.321780000000     0.298530000000     0.328880000000   
C      0.287700000000     0.262660000000     0.327630000000   
H      0.284870000000     0.243830000000     0.299530000000   
C      0.064270000000     0.238700000000     0.381840000000   
C      0.353360000000     0.307070000000     0.282540000000   
C      0.303590000000     0.347140000000     0.462780000000   
N      0.221280000000     0.217210000000     0.366320000000   
Mn     0.997250000000     0.404900000000     0.759030000000   
Mn     0.913340000000     0.322300000000     0.700450000000   
O      0.727940000000     0.586570000000     0.664290000000   
O      0.706810000000     0.564240000000     0.756370000000   
O      0.016750000000     0.613660000000     0.581440000000   
O      0.050150000000     0.675120000000     0.612270000000   
O      0.001150000000     0.713850000000     0.796100000000   
O      0.943710000000     0.668790000000     0.834560000000   
O      0.905170000000     0.370950000000     0.677050000000   
O      0.946010000000     0.409240000000     0.750320000000   
C      0.921790000000     0.401830000000     0.709340000000   
C      0.910870000000     0.432810000000     0.693000000000   
C      0.889150000000     0.429830000000     0.640310000000   
H      0.881130000000     0.408570000000     0.614170000000   
C      0.880330000000     0.459380000000     0.629010000000   
H      0.866230000000     0.457770000000     0.594470000000   
C      0.891510000000     0.490950000000     0.666520000000   
C      0.912600000000     0.493250000000     0.716040000000   
H      0.920330000000     0.514570000000     0.741870000000   
C      0.923170000000     0.465040000000     0.729860000000   
H      0.938430000000     0.467970000000     0.763670000000   
C      0.879930000000     0.522300000000     0.653160000000   
H      0.893830000000     0.536470000000     0.617270000000   
H      0.851830000000     0.508870000000     0.644370000000   
C      0.859870000000     0.539350000000     0.746300000000   
H      0.873930000000     0.552170000000     0.782770000000   
H      0.848130000000     0.511070000000     0.752370000000   
C      0.827230000000     0.548190000000     0.738580000000   
C      0.799580000000     0.539810000000     0.781310000000   
H      0.801430000000     0.528970000000     0.817470000000   
C      0.768510000000     0.547080000000     0.772450000000   
H      0.749630000000     0.540170000000     0.802470000000   
C      0.764900000000     0.563420000000     0.722780000000   
C      0.792150000000     0.573300000000     0.677170000000   
H      0.790130000000     0.584870000000     0.641770000000   
C      0.822710000000     0.565240000000     0.686340000000   
H      0.841230000000     0.571570000000     0.655870000000   
C      0.924080000000     0.587430000000     0.701040000000   
C      0.930050000000     0.615760000000     0.744000000000   
H      0.910030000000     0.610370000000     0.771570000000   
C      0.964550000000     0.651400000000     0.746770000000   
C      0.994260000000     0.659950000000     0.704030000000   
H      0.017530000000     0.684370000000     0.704170000000   
C      0.988440000000     0.631870000000     0.662220000000   
C      0.954360000000     0.596000000000     0.660970000000   
H      0.951530000000     0.577170000000     0.632870000000   
C      0.730930000000     0.572040000000     0.715180000000   
C      0.020020000000     0.640410000000     0.615880000000   
C      0.970250000000     0.680480000000     0.796120000000   
N      0.887940000000     0.550550000000     0.699660000000   
Mn     0.261760000000     0.925680000000     0.092360000000   
Mn     0.344370000000     0.924370000000     0.033780000000   
O      0.080100000000     0.474710000000     0.997620000000   
O      0.102430000000     0.475910000000     0.089700000000   
O      0.053010000000     0.736430000000     0.914770000000   
O      0.991550000000     0.708370000000     0.945600000000   
O      0.952820000000     0.620640000000     0.129430000000   
O      0.997880000000     0.608260000000     0.167890000000   
O      0.295720000000     0.867560000000     0.010380000000   
O      0.257430000000     0.870110000000     0.083650000000   
C      0.264840000000     0.853300000000     0.042670000000   
C      0.233860000000     0.811400000000     0.026330000000   
C      0.236840000000     0.792660000000     0.973640000000   
H      0.258100000000     0.805900000000     0.947500000000   
C      0.207290000000     0.754290000000     0.962340000000   
H      0.208900000000     0.741800000000     0.927800000000   
C      0.175720000000     0.733900000000     0.999850000000   
C      0.173420000000     0.752690000000     0.049370000000   
H      0.152100000000     0.739100000000     0.075200000000   
C      0.201630000000     0.791470000000     0.063190000000   
H      0.198700000000     0.803800000000     0.097000000000   
C      0.144370000000     0.690970000000     0.986490000000   
H      0.130200000000     0.690700000000     0.950600000000   
H      0.157800000000     0.676300000000     0.977700000000   
C      0.127320000000     0.653860000000     0.079630000000   
H      0.114500000000     0.655100000000     0.116100000000   
H      0.155600000000     0.670400000000     0.085700000000   
C      0.118480000000     0.612380000000     0.071910000000   
C      0.126860000000     0.593110000000     0.114640000000   
H      0.137700000000     0.605800000000     0.150800000000   
C      0.119590000000     0.554770000000     0.105780000000   
H      0.126500000000     0.542800000000     0.135800000000   
C      0.103250000000     0.534820000000     0.056110000000   
C      0.093370000000     0.552190000000     0.010500000000   
H      0.081800000000     0.538600000000     0.975100000000   
C      0.101430000000     0.590810000000     0.019670000000   
H      0.095100000000     0.603000000000     0.989200000000   
C      0.079240000000     0.669990000000     0.034370000000   
C      0.050910000000     0.647630000000     0.077330000000   
H      0.056300000000     0.633000000000     0.104900000000   
C      0.015270000000     0.646490000000     0.080100000000   
C      0.006720000000     0.667650000000     0.037360000000   
H      0.982300000000     0.666500000000     0.037500000000   
C      0.034800000000     0.689910000000     0.995550000000   
C      0.070670000000     0.691700000000     0.994300000000   
H      0.089500000000     0.707700000000     0.966200000000   
C      0.094630000000     0.492230000000     0.048510000000   
C      0.026260000000     0.712950000000     0.949210000000   
C      0.986190000000     0.623110000000     0.129450000000   
N      0.116120000000     0.670730000000     0.032990000000   
Mn     0.928430000000     0.259010000000     0.425690000000   
Mn     0.011030000000     0.257710000000     0.367120000000   
O      0.746770000000     0.808040000000     0.330950000000   
O      0.769100000000     0.809240000000     0.423030000000   
O      0.719680000000     0.069760000000     0.248100000000   
O      0.658220000000     0.041700000000     0.278930000000   
O      0.619490000000     0.953970000000     0.462760000000   
O      0.664550000000     0.941590000000     0.501220000000   
O      0.962390000000     0.200890000000     0.343710000000   
O      0.924100000000     0.203440000000     0.416980000000   
C      0.931510000000     0.186630000000     0.376000000000   
C      0.900530000000     0.144730000000     0.359660000000   
C      0.903510000000     0.125990000000     0.306970000000   
H      0.924770000000     0.139230000000     0.280830000000   
C      0.873960000000     0.087620000000     0.295670000000   
H      0.875570000000     0.075130000000     0.261130000000   
C      0.842390000000     0.067230000000     0.333180000000   
C      0.840090000000     0.086020000000     0.382700000000   
H      0.818770000000     0.072430000000     0.408530000000   
C      0.868300000000     0.124800000000     0.396520000000   
H      0.865370000000     0.137130000000     0.430330000000   
C      0.811040000000     0.024300000000     0.319820000000   
H      0.796870000000     0.024030000000     0.283930000000   
H      0.824470000000     0.009630000000     0.311030000000   
C      0.793990000000     0.987190000000     0.412960000000   
H      0.781170000000     0.988430000000     0.449430000000   
H      0.822270000000     0.003730000000     0.419030000000   
C      0.785150000000     0.945710000000     0.405240000000   
C      0.793530000000     0.926440000000     0.447970000000   
H      0.804370000000     0.939130000000     0.484130000000   
C      0.786260000000     0.888100000000     0.439110000000   
H      0.793170000000     0.876130000000     0.469130000000   
C      0.769920000000     0.868150000000     0.389440000000   
C      0.760040000000     0.885520000000     0.343830000000   
H      0.748470000000     0.871930000000     0.308430000000   
C      0.768100000000     0.924140000000     0.353000000000   
H      0.761770000000     0.936330000000     0.322530000000   
C      0.745910000000     0.003320000000     0.367700000000   
C      0.717580000000     0.980960000000     0.410660000000   
H      0.722970000000     0.966330000000     0.438230000000   
C      0.681940000000     0.979820000000     0.413430000000   
C      0.673390000000     0.000980000000     0.370690000000   
H      0.648970000000     0.999830000000     0.370830000000   
C      0.701470000000     0.023240000000     0.328880000000   
C      0.737340000000     0.025030000000     0.327630000000   
H      0.756170000000     0.041030000000     0.299530000000   
C      0.761300000000     0.825560000000     0.381840000000   
C      0.692930000000     0.046280000000     0.282540000000   
C      0.652860000000     0.956440000000     0.462780000000   
N      0.782790000000     0.004060000000     0.366320000000   
Mn     0.595100000000     0.592350000000     0.759030000000   
Mn     0.677700000000     0.591040000000     0.700450000000   
O      0.413430000000     0.141380000000     0.664290000000   
O      0.435760000000     0.142580000000     0.756370000000   
O      0.386340000000     0.403100000000     0.581440000000   
O      0.324880000000     0.375040000000     0.612270000000   
O      0.286150000000     0.287310000000     0.796100000000   
O      0.331210000000     0.274930000000     0.834560000000   
O      0.629050000000     0.534230000000     0.677050000000   
O      0.590760000000     0.536780000000     0.750320000000   
C      0.598170000000     0.519970000000     0.709340000000   
C      0.567190000000     0.478070000000     0.693000000000   
C      0.570170000000     0.459330000000     0.640310000000   
H      0.591430000000     0.472570000000     0.614170000000   
C      0.540620000000     0.420960000000     0.629010000000   
H      0.542230000000     0.408470000000     0.594470000000   
C      0.509050000000     0.400570000000     0.666520000000   
C      0.506750000000     0.419360000000     0.716040000000   
H      0.485430000000     0.405770000000     0.741870000000   
C      0.534960000000     0.458140000000     0.729860000000   
H      0.532030000000     0.470470000000     0.763670000000   
C      0.477700000000     0.357640000000     0.653160000000   
H      0.463530000000     0.357370000000     0.617270000000   
H      0.491130000000     0.342970000000     0.644370000000   
C      0.460650000000     0.320530000000     0.746300000000   
H      0.447830000000     0.321770000000     0.782770000000   
H      0.488930000000     0.337070000000     0.752370000000   
C      0.451810000000     0.279050000000     0.738580000000   
C      0.460190000000     0.259780000000     0.781310000000   
H      0.471030000000     0.272470000000     0.817470000000   
C      0.452920000000     0.221440000000     0.772450000000   
H      0.459830000000     0.209470000000     0.802470000000   
C      0.436580000000     0.201490000000     0.722780000000   
C      0.426700000000     0.218860000000     0.677170000000   
H      0.415130000000     0.205270000000     0.641770000000   
C      0.434760000000     0.257480000000     0.686340000000   
H      0.428430000000     0.269670000000     0.655870000000   
C      0.412570000000     0.336660000000     0.701040000000   
C      0.384240000000     0.314300000000     0.744000000000   
H      0.389630000000     0.299670000000     0.771570000000   
C      0.348600000000     0.313160000000     0.746770000000   
C      0.340050000000     0.334320000000     0.704030000000   
H      0.315630000000     0.333170000000     0.704170000000   
C      0.368130000000     0.356580000000     0.662220000000   
C      0.404000000000     0.358370000000     0.660970000000   
H      0.422830000000     0.374370000000     0.632870000000   
C      0.427960000000     0.158900000000     0.715180000000   
C      0.359590000000     0.379620000000     0.615880000000   
C      0.319520000000     0.289780000000     0.796120000000   
N      0.449450000000     0.337400000000     0.699660000000   
Mn     0.074320000000     0.336080000000     0.092360000000   
Mn     0.075630000000     0.419990000000     0.033780000000   
O      0.525290000000     0.605390000000     0.997620000000   
O      0.524090000000     0.626520000000     0.089700000000   
O      0.263570000000     0.316580000000     0.914770000000   
O      0.291630000000     0.283180000000     0.945600000000   
O      0.379360000000     0.332180000000     0.129430000000   
O      0.391740000000     0.389620000000     0.167890000000   
O      0.132440000000     0.428160000000     0.010380000000   
O      0.129890000000     0.387320000000     0.083650000000   
C      0.146700000000     0.411540000000     0.042670000000   
C      0.188600000000     0.422460000000     0.026330000000   
C      0.207340000000     0.444180000000     0.973640000000   
H      0.194100000000     0.452200000000     0.947500000000   
C      0.245710000000     0.453000000000     0.962340000000   
H      0.258200000000     0.467100000000     0.927800000000   
C      0.266100000000     0.441820000000     0.999850000000   
C      0.247310000000     0.420730000000     0.049370000000   
H      0.260900000000     0.413000000000     0.075200000000   
C      0.208530000000     0.410160000000     0.063190000000   
H      0.196200000000     0.394900000000     0.097000000000   
C      0.309030000000     0.453400000000     0.986490000000   
H      0.309300000000     0.439500000000     0.950600000000   
H      0.323700000000     0.481500000000     0.977700000000   
C      0.346140000000     0.473460000000     0.079630000000   
H      0.344900000000     0.459400000000     0.116100000000   
H      0.329600000000     0.485200000000     0.085700000000   
C      0.387620000000     0.506100000000     0.071910000000   
C      0.406890000000     0.533750000000     0.114640000000   
H      0.394200000000     0.531900000000     0.150800000000   
C      0.445230000000     0.564820000000     0.105780000000   
H      0.457200000000     0.583700000000     0.135800000000   
C      0.465180000000     0.568430000000     0.056110000000   
C      0.447810000000     0.541180000000     0.010500000000   
H      0.461400000000     0.543200000000     0.975100000000   
C      0.409190000000     0.510620000000     0.019670000000   
H      0.397000000000     0.492100000000     0.989200000000   
C      0.330010000000     0.409250000000     0.034370000000   
C      0.352370000000     0.403280000000     0.077330000000   
H      0.367000000000     0.423300000000     0.104900000000   
C      0.353510000000     0.368780000000     0.080100000000   
C      0.332350000000     0.339070000000     0.037360000000   
H      0.333500000000     0.315800000000     0.037500000000   
C      0.310090000000     0.344890000000     0.995550000000   
C      0.308300000000     0.378970000000     0.994300000000   
H      0.292300000000     0.381800000000     0.966200000000   
C      0.507770000000     0.602400000000     0.048510000000   
C      0.287050000000     0.313310000000     0.949210000000   
C      0.376890000000     0.363080000000     0.129450000000   
N      0.329270000000     0.445390000000     0.032990000000   
Mn     0.740990000000     0.669410000000     0.425690000000   
Mn     0.742290000000     0.753330000000     0.367120000000   
O      0.191960000000     0.938720000000     0.330950000000   
O      0.190760000000     0.959850000000     0.423030000000   
O      0.930240000000     0.649910000000     0.248100000000   
O      0.958300000000     0.616510000000     0.278930000000   
O      0.046030000000     0.665510000000     0.462760000000   
O      0.058410000000     0.722950000000     0.501220000000   
O      0.799110000000     0.761490000000     0.343710000000   
O      0.796560000000     0.720650000000     0.416980000000   
C      0.813370000000     0.744870000000     0.376000000000   
C      0.855270000000     0.755790000000     0.359660000000   
C      0.874010000000     0.777510000000     0.306970000000   
H      0.860770000000     0.785530000000     0.280830000000   
C      0.912380000000     0.786330000000     0.295670000000   
H      0.924870000000     0.800430000000     0.261130000000   
C      0.932770000000     0.775150000000     0.333180000000   
C      0.913980000000     0.754060000000     0.382700000000   
H      0.927570000000     0.746330000000     0.408530000000   
C      0.875200000000     0.743490000000     0.396520000000   
H      0.862870000000     0.728230000000     0.430330000000   
C      0.975700000000     0.786730000000     0.319820000000   
H      0.975970000000     0.772830000000     0.283930000000   
H      0.990370000000     0.814830000000     0.311030000000   
C      0.012810000000     0.806790000000     0.412960000000   
H      0.011570000000     0.792730000000     0.449430000000   
H      0.996270000000     0.818530000000     0.419030000000   
C      0.054290000000     0.839430000000     0.405240000000   
C      0.073560000000     0.867080000000     0.447970000000   
H      0.060870000000     0.865230000000     0.484130000000   
C      0.111900000000     0.898150000000     0.439110000000   
H      0.123870000000     0.917030000000     0.469130000000   
C      0.131850000000     0.901760000000     0.389440000000   
C      0.114480000000     0.874510000000     0.343830000000   
H      0.128070000000     0.876530000000     0.308430000000   
C      0.075860000000     0.843950000000     0.353000000000   
H      0.063670000000     0.825430000000     0.322530000000   
C      0.996680000000     0.742580000000     0.367700000000   
C      0.019040000000     0.736610000000     0.410660000000   
H      0.033670000000     0.756630000000     0.438230000000   
C      0.020180000000     0.702110000000     0.413430000000   
C      0.999020000000     0.672400000000     0.370690000000   
H      0.000170000000     0.649130000000     0.370830000000   
C      0.976760000000     0.678220000000     0.328880000000   
C      0.974970000000     0.712300000000     0.327630000000   
H      0.958970000000     0.715130000000     0.299530000000   
C      0.174440000000     0.935730000000     0.381840000000   
C      0.953720000000     0.646640000000     0.282540000000   
C      0.043560000000     0.696410000000     0.462780000000   
N      0.995940000000     0.778720000000     0.366320000000   
Mn     0.407650000000     0.002750000000     0.759030000000   
Mn     0.408960000000     0.086660000000     0.700450000000   
O      0.858620000000     0.272060000000     0.664290000000   
O      0.857420000000     0.293190000000     0.756370000000   
O      0.596900000000     0.983250000000     0.581440000000   
O      0.624960000000     0.949850000000     0.612270000000   
O      0.712690000000     0.998850000000     0.796100000000   
O      0.725070000000     0.056290000000     0.834560000000   
O      0.465770000000     0.094830000000     0.677050000000   
O      0.463220000000     0.053990000000     0.750320000000   
C      0.480030000000     0.078210000000     0.709340000000   
C      0.521930000000     0.089130000000     0.693000000000   
C      0.540670000000     0.110850000000     0.640310000000   
H      0.527430000000     0.118870000000     0.614170000000   
C      0.579040000000     0.119670000000     0.629010000000   
H      0.591530000000     0.133770000000     0.594470000000   
C      0.599430000000     0.108490000000     0.666520000000   
C      0.580640000000     0.087400000000     0.716040000000   
H      0.594230000000     0.079670000000     0.741870000000   
C      0.541860000000     0.076830000000     0.729860000000   
H      0.529530000000     0.061570000000     0.763670000000   
C      0.642360000000     0.120070000000     0.653160000000   
H      0.642630000000     0.106170000000     0.617270000000   
H      0.657030000000     0.148170000000     0.644370000000   
C      0.679470000000     0.140130000000     0.746300000000   
H      0.678230000000     0.126070000000     0.782770000000   
H      0.662930000000     0.151870000000     0.752370000000   
C      0.720950000000     0.172770000000     0.738580000000   
C      0.740220000000     0.200420000000     0.781310000000   
H      0.727530000000     0.198570000000     0.817470000000   
C      0.778560000000     0.231490000000     0.772450000000   
H      0.790530000000     0.250370000000     0.802470000000   
C      0.798510000000     0.235100000000     0.722780000000   
C      0.781140000000     0.207850000000     0.677170000000   
H      0.794730000000     0.209870000000     0.641770000000   
C      0.742520000000     0.177290000000     0.686340000000   
H      0.730330000000     0.158770000000     0.655870000000   
C      0.663340000000     0.075920000000     0.701040000000   
C      0.685700000000     0.069950000000     0.744000000000   
H      0.700330000000     0.089970000000     0.771570000000   
C      0.686840000000     0.035450000000     0.746770000000   
C      0.665680000000     0.005740000000     0.704030000000   
H      0.666830000000     0.982470000000     0.704170000000   
C      0.643420000000     0.011560000000     0.662220000000   
C      0.641630000000     0.045640000000     0.660970000000   
H      0.625630000000     0.048470000000     0.632870000000   
C      0.841100000000     0.269070000000     0.715180000000   
C      0.620380000000     0.979980000000     0.615880000000   
C      0.710220000000     0.029750000000     0.796120000000   
N      0.662600000000     0.112060000000     0.699660000000   
Mn     0.261760000000     0.336080000000     0.592360000000   
Mn     0.344370000000     0.419990000000     0.533780000000   
O      0.080100000000     0.605390000000     0.497620000000   
O      0.102430000000     0.626520000000     0.589700000000   
O      0.053010000000     0.316580000000     0.414770000000   
O      0.991550000000     0.283180000000     0.445600000000   
O      0.952820000000     0.332180000000     0.629430000000   
O      0.997880000000     0.389620000000     0.667890000000   
O      0.295720000000     0.428160000000     0.510380000000   
O      0.257430000000     0.387320000000     0.583650000000   
C      0.264840000000     0.411540000000     0.542670000000   
C      0.233860000000     0.422460000000     0.526330000000   
C      0.236840000000     0.444180000000     0.473640000000   
H      0.258100000000     0.452200000000     0.447500000000   
C      0.207290000000     0.453000000000     0.462340000000   
H      0.208900000000     0.467100000000     0.427800000000   
C      0.175720000000     0.441820000000     0.499850000000   
C      0.173420000000     0.420730000000     0.549370000000   
H      0.152100000000     0.413000000000     0.575200000000   
C      0.201630000000     0.410160000000     0.563190000000   
H      0.198700000000     0.394900000000     0.597000000000   
C      0.144370000000     0.453400000000     0.486490000000   