%BLOCK LATTICE_CART
ang    # angstrom units
  10.462200000000    0.000000000000     0.000000000000   
  0.000000000000     7.187000000000     0.000000000000   
 -5.190834425207     0.000000000000     12.412740121749  
%ENDBLOCK LATTICE_CART

%BLOCK POSITIONS_FRAC
N      0.135500000000     0.096400000000     0.260600000000   
N      0.096400000000     0.157200000000     0.161800000000   
N      0.864500000000     0.596400000000     0.739400000000   
N      0.903600000000     0.657200000000     0.838200000000   
N      0.864500000000     0.903600000000     0.739400000000   
N      0.903600000000     0.842800000000     0.838200000000   
N      0.135500000000     0.403600000000     0.260600000000   
N      0.096400000000     0.342800000000     0.161800000000   
Cd     0.856300000000     0.250000000000     0.725120000000   
O      0.635000000000     0.250000000000     0.622600000000   
O      0.605600000000     0.250000000000     0.776700000000   
O      0.114300000000     0.250000000000     0.762700000000   
O      0.943600000000     0.250000000000     0.601500000000   
O      0.902500000000     0.250000000000     0.902400000000   
C      0.564000000000     0.250000000000     0.679100000000   
C      0.407800000000     0.250000000000     0.614500000000   
C      0.359400000000     0.250000000000     0.505200000000   
H      0.421500000000     0.250000000000     0.471000000000   
C      0.214300000000     0.250000000000     0.442700000000   
C      0.126400000000     0.250000000000     0.493000000000   
H      0.031300000000     0.250000000000     0.453500000000   
C      0.179600000000     0.250000000000     0.608000000000   
C      0.314200000000     0.250000000000     0.667800000000   
H      0.346400000000     0.250000000000     0.742600000000   
C      0.071100000000     0.250000000000     0.659000000000   
C      0.163900000000     0.250000000000     0.322600000000   
Cd     0.143700000000     0.750000000000     0.274880000000   
O      0.365000000000     0.750000000000     0.377400000000   
O      0.394400000000     0.750000000000     0.223300000000   
O      0.885700000000     0.750000000000     0.237300000000   
O      0.056400000000     0.750000000000     0.398500000000   
O      0.097500000000     0.750000000000     0.097600000000   
C      0.436000000000     0.750000000000     0.320900000000   
C      0.592200000000     0.750000000000     0.385500000000   
C      0.640600000000     0.750000000000     0.494800000000   
H      0.578500000000     0.750000000000     0.529000000000   
C      0.785700000000     0.750000000000     0.557300000000   
C      0.873600000000     0.750000000000     0.507000000000   
H      0.968700000000     0.750000000000     0.546500000000   
C      0.820400000000     0.750000000000     0.392000000000   
C      0.685800000000     0.750000000000     0.332200000000   
H      0.653600000000     0.750000000000     0.257400000000   
C      0.928900000000     0.750000000000     0.341000000000   
C      0.836100000000     0.750000000000     0.677400000000   
Cd     0.000000000000     0.000000000000     0.000000000000   
Cd     0.000000000000     0.500000000000     0.000000000000   
%ENDBLOCK POSITIONS_FRAC
