SimulationType                MonteCarlo
NumberOfCycles                20000
NumberOfInitializationCycles  10000
PrintEvery                    5000
RestartFile                   no

Forcefield                    GarciaPerez2006ForceField

Framework 0
FrameworkName XOPLOE_clean
UnitCells 2 2 2
ExternalTemperature    293.15
ExternalPressure    100000.0

Component 0 MoleculeName             O2
            MoleculeDefinition       ExampleDefinitions
            FugacityCoefficient      1.0
            TranslationProbability   0.5
            RotationProbability      0.5
            ReinsertionProbability   0.5
            SwapProbability          1.0
            CreateNumberOfMolecules  0


