%BLOCK LATTICE_CART
ang    # angstrom units
  17.116800000000    0.000000000000     0.000000000000   
  0.000000000000     17.116800000000    0.000000000000   
  0.000000000000     0.000000000000     17.116800000000  
%ENDBLOCK LATTICE_CART

%BLOCK POSITIONS_FRAC
N      0.015400000000     0.407100000000     0.317600000000   
N      0.082000000000     0.365300000000     0.313000000000   
H      0.881900000000     0.370100000000     0.444800000000   
H      0.898600000000     0.454900000000     0.414500000000   
H      0.862200000000     0.392500000000     0.358200000000   
N      0.515400000000     0.907100000000     0.817600000000   
N      0.582000000000     0.865300000000     0.813000000000   
H      0.381900000000     0.870100000000     0.944800000000   
H      0.398600000000     0.954900000000     0.914500000000   
H      0.362200000000     0.892500000000     0.858200000000   
N      0.984600000000     0.592900000000     0.317600000000   
N      0.918000000000     0.634700000000     0.313000000000   
H      0.118100000000     0.629900000000     0.444800000000   
H      0.101400000000     0.545100000000     0.414500000000   
H      0.137800000000     0.607500000000     0.358200000000   
N      0.484600000000     0.092900000000     0.817600000000   
N      0.418000000000     0.134700000000     0.813000000000   
H      0.618100000000     0.129900000000     0.944800000000   
H      0.601400000000     0.045100000000     0.914500000000   
H      0.637800000000     0.107500000000     0.858200000000   
N      0.984600000000     0.407100000000     0.682400000000   
N      0.918000000000     0.365300000000     0.687000000000   
H      0.118100000000     0.370100000000     0.555200000000   
H      0.101400000000     0.454900000000     0.585500000000   
H      0.137800000000     0.392500000000     0.641800000000   
N      0.484600000000     0.907100000000     0.182400000000   
N      0.418000000000     0.865300000000     0.187000000000   
H      0.618100000000     0.870100000000     0.055200000000   
H      0.601400000000     0.954900000000     0.085500000000   
H      0.637800000000     0.892500000000     0.141800000000   
N      0.015400000000     0.592900000000     0.682400000000   
N      0.082000000000     0.634700000000     0.687000000000   
H      0.881900000000     0.629900000000     0.555200000000   
H      0.898600000000     0.545100000000     0.585500000000   
H      0.862200000000     0.607500000000     0.641800000000   
N      0.515400000000     0.092900000000     0.182400000000   
N      0.582000000000     0.134700000000     0.187000000000   
H      0.381900000000     0.129900000000     0.055200000000   
H      0.398600000000     0.045100000000     0.085500000000   
H      0.362200000000     0.107500000000     0.141800000000   
N      0.317600000000     0.015400000000     0.407100000000   
N      0.313000000000     0.082000000000     0.365300000000   
H      0.444800000000     0.881900000000     0.370100000000   
H      0.414500000000     0.898600000000     0.454900000000   
H      0.358200000000     0.862200000000     0.392500000000   
N      0.817600000000     0.515400000000     0.907100000000   
N      0.813000000000     0.582000000000     0.865300000000   
H      0.944800000000     0.381900000000     0.870100000000   
H      0.914500000000     0.398600000000     0.954900000000   
H      0.858200000000     0.362200000000     0.892500000000   
N      0.317600000000     0.984600000000     0.592900000000   
N      0.313000000000     0.918000000000     0.634700000000   
H      0.444800000000     0.118100000000     0.629900000000   
H      0.414500000000     0.101400000000     0.545100000000   
H      0.358200000000     0.137800000000     0.607500000000   
N      0.817600000000     0.484600000000     0.092900000000   
N      0.813000000000     0.418000000000     0.134700000000   
H      0.944800000000     0.618100000000     0.129900000000   
H      0.914500000000     0.601400000000     0.045100000000   
H      0.858200000000     0.637800000000     0.107500000000   
N      0.682400000000     0.984600000000     0.407100000000   
N      0.687000000000     0.918000000000     0.365300000000   
H      0.555200000000     0.118100000000     0.370100000000   
H      0.585500000000     0.101400000000     0.454900000000   
H      0.641800000000     0.137800000000     0.392500000000   
N      0.182400000000     0.484600000000     0.907100000000   
N      0.187000000000     0.418000000000     0.865300000000   
H      0.055200000000     0.618100000000     0.870100000000   
H      0.085500000000     0.601400000000     0.954900000000   
H      0.141800000000     0.637800000000     0.892500000000   
N      0.682400000000     0.015400000000     0.592900000000   
N      0.687000000000     0.082000000000     0.634700000000   
H      0.555200000000     0.881900000000     0.629900000000   
H      0.585500000000     0.898600000000     0.545100000000   
H      0.641800000000     0.862200000000     0.607500000000   
N      0.182400000000     0.515400000000     0.092900000000   
N      0.187000000000     0.582000000000     0.134700000000   
H      0.055200000000     0.381900000000     0.129900000000   
H      0.085500000000     0.398600000000     0.045100000000   
H      0.141800000000     0.362200000000     0.107500000000   
N      0.407100000000     0.317600000000     0.015400000000   
N      0.365300000000     0.313000000000     0.082000000000   
H      0.370100000000     0.444800000000     0.881900000000   
H      0.454900000000     0.414500000000     0.898600000000   
H      0.392500000000     0.358200000000     0.862200000000   
N      0.907100000000     0.817600000000     0.515400000000   
N      0.865300000000     0.813000000000     0.582000000000   
H      0.870100000000     0.944800000000     0.381900000000   
H      0.954900000000     0.914500000000     0.398600000000   
H      0.892500000000     0.858200000000     0.362200000000   
N      0.592900000000     0.317600000000     0.984600000000   
N      0.634700000000     0.313000000000     0.918000000000   
H      0.629900000000     0.444800000000     0.118100000000   
H      0.545100000000     0.414500000000     0.101400000000   
H      0.607500000000     0.358200000000     0.137800000000   
N      0.092900000000     0.817600000000     0.484600000000   
N      0.134700000000     0.813000000000     0.418000000000   
H      0.129900000000     0.944800000000     0.618100000000   
H      0.045100000000     0.914500000000     0.601400000000   
H      0.107500000000     0.858200000000     0.637800000000   
N      0.407100000000     0.682400000000     0.984600000000   
N      0.365300000000     0.687000000000     0.918000000000   
H      0.370100000000     0.555200000000     0.118100000000   
H      0.454900000000     0.585500000000     0.101400000000   
H      0.392500000000     0.641800000000     0.137800000000   
N      0.907100000000     0.182400000000     0.484600000000   
N      0.865300000000     0.187000000000     0.418000000000   
H      0.870100000000     0.055200000000     0.618100000000   
H      0.954900000000     0.085500000000     0.601400000000   
H      0.892500000000     0.141800000000     0.637800000000   
N      0.592900000000     0.682400000000     0.015400000000   
N      0.634700000000     0.687000000000     0.082000000000   
H      0.629900000000     0.555200000000     0.881900000000   
H      0.545100000000     0.585500000000     0.898600000000   
H      0.607500000000     0.641800000000     0.862200000000   
N      0.092900000000     0.182400000000     0.515400000000   
N      0.134700000000     0.187000000000     0.582000000000   
H      0.129900000000     0.055200000000     0.381900000000   
H      0.045100000000     0.085500000000     0.398600000000   
H      0.107500000000     0.141800000000     0.362200000000   
N      0.407100000000     0.015400000000     0.317600000000   
N      0.365300000000     0.082000000000     0.313000000000   
H      0.370100000000     0.881900000000     0.444800000000   
H      0.454900000000     0.898600000000     0.414500000000   
H      0.392500000000     0.862200000000     0.358200000000   
N      0.907100000000     0.515400000000     0.817600000000   
N      0.865300000000     0.582000000000     0.813000000000   
H      0.870100000000     0.381900000000     0.944800000000   
H      0.954900000000     0.398600000000     0.914500000000   
H      0.892500000000     0.362200000000     0.858200000000   
N      0.592900000000     0.984600000000     0.317600000000   
N      0.634700000000     0.918000000000     0.313000000000   
H      0.629900000000     0.118100000000     0.444800000000   
H      0.545100000000     0.101400000000     0.414500000000   
H      0.607500000000     0.137800000000     0.358200000000   
N      0.092900000000     0.484600000000     0.817600000000   
N      0.134700000000     0.418000000000     0.813000000000   
H      0.129900000000     0.618100000000     0.944800000000   
H      0.045100000000     0.601400000000     0.914500000000   
H      0.107500000000     0.637800000000     0.858200000000   
N      0.407100000000     0.984600000000     0.682400000000   
N      0.365300000000     0.918000000000     0.687000000000   
H      0.370100000000     0.118100000000     0.555200000000   
H      0.454900000000     0.101400000000     0.585500000000   
H      0.392500000000     0.137800000000     0.641800000000   
N      0.907100000000     0.484600000000     0.182400000000   
N      0.865300000000     0.418000000000     0.187000000000   
H      0.870100000000     0.618100000000     0.055200000000   
H      0.954900000000     0.601400000000     0.085500000000   
H      0.892500000000     0.637800000000     0.141800000000   
N      0.592900000000     0.015400000000     0.682400000000   
N      0.634700000000     0.082000000000     0.687000000000   
H      0.629900000000     0.881900000000     0.555200000000   
H      0.545100000000     0.898600000000     0.585500000000   
H      0.607500000000     0.862200000000     0.641800000000   
N      0.092900000000     0.515400000000     0.182400000000   
N      0.134700000000     0.582000000000     0.187000000000   
H      0.129900000000     0.381900000000     0.055200000000   
H      0.045100000000     0.398600000000     0.085500000000   
H      0.107500000000     0.362200000000     0.141800000000   
N      0.015400000000     0.317600000000     0.407100000000   
N      0.082000000000     0.313000000000     0.365300000000   
H      0.881900000000     0.444800000000     0.370100000000   
H      0.898600000000     0.414500000000     0.454900000000   
H      0.862200000000     0.358200000000     0.392500000000   
N      0.515400000000     0.817600000000     0.907100000000   
N      0.582000000000     0.813000000000     0.865300000000   
H      0.381900000000     0.944800000000     0.870100000000   
H      0.398600000000     0.914500000000     0.954900000000   
H      0.362200000000     0.858200000000     0.892500000000   
N      0.984600000000     0.317600000000     0.592900000000   
N      0.918000000000     0.313000000000     0.634700000000   
H      0.118100000000     0.444800000000     0.629900000000   
H      0.101400000000     0.414500000000     0.545100000000   
H      0.137800000000     0.358200000000     0.607500000000   
N      0.484600000000     0.817600000000     0.092900000000   
N      0.418000000000     0.813000000000     0.134700000000   
H      0.618100000000     0.944800000000     0.129900000000   
H      0.601400000000     0.914500000000     0.045100000000   
H      0.637800000000     0.858200000000     0.107500000000   
N      0.984600000000     0.682400000000     0.407100000000   
N      0.918000000000     0.687000000000     0.365300000000   
H      0.118100000000     0.555200000000     0.370100000000   
H      0.101400000000     0.585500000000     0.454900000000   
H      0.137800000000     0.641800000000     0.392500000000   
N      0.484600000000     0.182400000000     0.907100000000   
N      0.418000000000     0.187000000000     0.865300000000   
H      0.618100000000     0.055200000000     0.870100000000   
H      0.601400000000     0.085500000000     0.954900000000   
H      0.637800000000     0.141800000000     0.892500000000   
N      0.015400000000     0.682400000000     0.592900000000   
N      0.082000000000     0.687000000000     0.634700000000   
H      0.881900000000     0.555200000000     0.629900000000   
H      0.898600000000     0.585500000000     0.545100000000   
H      0.862200000000     0.641800000000     0.607500000000   
N      0.515400000000     0.182400000000     0.092900000000   
N      0.582000000000     0.187000000000     0.134700000000   
H      0.381900000000     0.055200000000     0.129900000000   
H      0.398600000000     0.085500000000     0.045100000000   
H      0.362200000000     0.141800000000     0.107500000000   
N      0.317600000000     0.407100000000     0.015400000000   
N      0.313000000000     0.365300000000     0.082000000000   
H      0.444800000000     0.370100000000     0.881900000000   
H      0.414500000000     0.454900000000     0.898600000000   
H      0.358200000000     0.392500000000     0.862200000000   
N      0.817600000000     0.907100000000     0.515400000000   
N      0.813000000000     0.865300000000     0.582000000000   
H      0.944800000000     0.870100000000     0.381900000000   
H      0.914500000000     0.954900000000     0.398600000000   
H      0.858200000000     0.892500000000     0.362200000000   
N      0.317600000000     0.592900000000     0.984600000000   
N      0.313000000000     0.634700000000     0.918000000000   
H      0.444800000000     0.629900000000     0.118100000000   
H      0.414500000000     0.545100000000     0.101400000000   
H      0.358200000000     0.607500000000     0.137800000000   
N      0.817600000000     0.092900000000     0.484600000000   
N      0.813000000000     0.134700000000     0.418000000000   
H      0.944800000000     0.129900000000     0.618100000000   
H      0.914500000000     0.045100000000     0.601400000000   
H      0.858200000000     0.107500000000     0.637800000000   
N      0.682400000000     0.407100000000     0.984600000000   
N      0.687000000000     0.365300000000     0.918000000000   
H      0.555200000000     0.370100000000     0.118100000000   
H      0.585500000000     0.454900000000     0.101400000000   
H      0.641800000000     0.392500000000     0.137800000000   
N      0.182400000000     0.907100000000     0.484600000000   
N      0.187000000000     0.865300000000     0.418000000000   
H      0.055200000000     0.870100000000     0.618100000000   
H      0.085500000000     0.954900000000     0.601400000000   
H      0.141800000000     0.892500000000     0.637800000000   
N      0.682400000000     0.592900000000     0.015400000000   
N      0.687000000000     0.634700000000     0.082000000000   
H      0.555200000000     0.629900000000     0.881900000000   
H      0.585500000000     0.545100000000     0.898600000000   
H      0.641800000000     0.607500000000     0.862200000000   
N      0.182400000000     0.092900000000     0.515400000000   
N      0.187000000000     0.134700000000     0.582000000000   
H      0.055200000000     0.129900000000     0.381900000000   
H      0.085500000000     0.045100000000     0.398600000000   
H      0.141800000000     0.107500000000     0.362200000000   
Zn     0.000000000000     0.500000000000     0.250000000000   
Zn     0.000000000000     0.500000000000     0.750000000000   
Zn     0.250000000000     0.000000000000     0.500000000000   
Zn     0.750000000000     0.000000000000     0.500000000000   
Zn     0.500000000000     0.250000000000     0.000000000000   
Zn     0.500000000000     0.750000000000     0.000000000000   
Zn     0.500000000000     0.000000000000     0.250000000000   
Zn     0.500000000000     0.000000000000     0.750000000000   
Zn     0.000000000000     0.250000000000     0.500000000000   
Zn     0.000000000000     0.750000000000     0.500000000000   
Zn     0.250000000000     0.500000000000     0.000000000000   
Zn     0.750000000000     0.500000000000     0.000000000000   
C      0.978500000000     0.375900000000     0.375900000000   
C      0.898100000000     0.400600000000     0.400600000000   
C      0.478500000000     0.875900000000     0.875900000000   
C      0.398100000000     0.900600000000     0.900600000000   
C      0.021500000000     0.624100000000     0.375900000000   
C      0.101900000000     0.599400000000     0.400600000000   
C      0.521500000000     0.124100000000     0.875900000000   
C      0.601900000000     0.099400000000     0.900600000000   
C      0.021500000000     0.375900000000     0.624100000000   
C      0.101900000000     0.400600000000     0.599400000000   
C      0.521500000000     0.875900000000     0.124100000000   
C      0.601900000000     0.900600000000     0.099400000000   
C      0.978500000000     0.624100000000     0.624100000000   
C      0.898100000000     0.599400000000     0.599400000000   
C      0.478500000000     0.124100000000     0.124100000000   
C      0.398100000000     0.099400000000     0.099400000000   
C      0.375900000000     0.978500000000     0.375900000000   
C      0.400600000000     0.898100000000     0.400600000000   
C      0.875900000000     0.478500000000     0.875900000000   
C      0.900600000000     0.398100000000     0.900600000000   
C      0.375900000000     0.021500000000     0.624100000000   
C      0.400600000000     0.101900000000     0.599400000000   
C      0.875900000000     0.521500000000     0.124100000000   
C      0.900600000000     0.601900000000     0.099400000000   
C      0.624100000000     0.021500000000     0.375900000000   
C      0.599400000000     0.101900000000     0.400600000000   
C      0.124100000000     0.521500000000     0.875900000000   
C      0.099400000000     0.601900000000     0.900600000000   
C      0.624100000000     0.978500000000     0.624100000000   
C      0.599400000000     0.898100000000     0.599400000000   
C      0.124100000000     0.478500000000     0.124100000000   
C      0.099400000000     0.398100000000     0.099400000000   
C      0.375900000000     0.375900000000     0.978500000000   
C      0.400600000000     0.400600000000     0.898100000000   
C      0.875900000000     0.875900000000     0.478500000000   
C      0.900600000000     0.900600000000     0.398100000000   
C      0.624100000000     0.375900000000     0.021500000000   
C      0.599400000000     0.400600000000     0.101900000000   
C      0.124100000000     0.875900000000     0.521500000000   
C      0.099400000000     0.900600000000     0.601900000000   
C      0.375900000000     0.624100000000     0.021500000000   
C      0.400600000000     0.599400000000     0.101900000000   
C      0.875900000000     0.124100000000     0.521500000000   
C      0.900600000000     0.099400000000     0.601900000000   
C      0.624100000000     0.624100000000     0.978500000000   
C      0.599400000000     0.599400000000     0.898100000000   
C      0.124100000000     0.124100000000     0.478500000000   
C      0.099400000000     0.099400000000     0.398100000000   
%ENDBLOCK POSITIONS_FRAC
