! B3LYP def2-SVP SP TightSCF ALLPOP KEEPDENS ChelpG

%maxcore 5000

%pal
nprocs 20
end

* xyz 0 1
  N          -2.39477299613526     -0.00014746416076      0.00259155610327
  C          -1.02006085102483     -0.00002898782985      0.00109768082725
  C          -0.29451578003690      1.21010597484804      0.00070864056743
  C          -0.29430791483652     -1.21004077914909      0.00073496591759
  C           1.09919968425860      1.20294323285157      0.00006895525262
  C           1.09940698448867     -1.20263828463898      0.00009765014726
  C           1.81286451075136      0.00021330386914     -0.00024143264361
  H          -0.83698073701803      2.16008099735458      0.00100027329149
  H          -0.83660594655977     -2.16011144279987      0.00104691858265
  H           1.63556709517397      2.15589602034020     -0.00022602752111
  H           1.63593400755151     -2.15550137440929     -0.00017410803890
  H           2.90478340008884      0.00031041490686     -0.00077570690125
  H          -2.91228313491186     -0.86570237283610     -0.00320161588796
  H          -2.91242832178980      0.86532076165356     -0.00322774969673
*
