! wB97X-D3 def2-SVP OPT NormalSCF

%pal
nprocs 28
end

%maxcore 5000

%scf
 SmearTemp 500 
end

* xyz 0 1
O          0.29040        2.69180       -1.03220
O         -4.31070       -0.42590        1.63560
C          0.96360        0.69900        0.13120
C         -0.39990        0.40560        0.51570
C         -2.51970       -0.66010        0.05970
C         -1.20520       -0.37760       -0.31140
C          3.30650        0.10170        0.16880
C          1.98560       -0.16460        0.52960
C          1.26710        1.82980       -0.62940
C         -0.90920        0.90620        1.71370
C         -3.02920       -0.15950        1.25790
C         -3.36780       -1.50000       -0.83750
C          4.39720       -0.82180        0.59540
C          3.60780        1.23180       -0.59100
C         -2.22370        0.62350        2.08490
C          2.58810        2.09590       -0.99000
C         -4.13330       -0.69030       -1.85080
C          4.65950       -1.92370       -0.39840
C         -5.46840       -0.63560       -1.91540
C          4.50110       -3.22600       -0.13640
H         -0.81010       -0.76760       -1.24750
H          1.75600       -1.04870        1.12160
H         -0.29500        1.51850        2.36980
H         -2.73510       -2.21550       -1.37960
H         -4.04480       -2.12650       -0.24250
H          5.32740       -0.25690        0.73970
H          4.16110       -1.23780        1.58380
H          4.63250        1.45000       -0.88010
H         -2.60750        1.02000        3.02110
H          2.83790        2.97250       -1.58190
H         -3.55590       -0.12960       -2.58200
H          5.01500       -1.63310       -1.38400
H          0.69310        3.41190       -1.54700
H         -4.48550        0.00370        2.49040
H         -5.95770       -0.03760       -2.67630
H         -6.09220       -1.18040       -1.21550
H          4.71560       -3.96940       -0.89620
H          4.15620       -3.57130        0.83190
*

