! B3LYP def2-SVP Opt TightSCF ALLPOP KEEPDENS

%pal
	nprocs 8
end

* xyz 0 1
O          0.00000        0.00000        0.00000
O          1.33000        0.00000        0.00000
*
