! B3LYP def2-SVP OPT TightSCF D3BJ


%maxcore 3000

%pal
nprocs 40
end

* xyz 0 1
  O           2.65649636259722     -0.47225647465979      1.34601967572431
  O           2.72590803050352     -0.32659986625729     -0.81395240623087
  N           2.15584431603809     -0.21066142059212      0.26141395243552
  N          -3.15534034716612      1.70036718667686      0.21267699460614
  C           0.77292601333439      0.27673745228189      0.24975183007654
  C          -1.86049344062733      1.19307280562640      0.22733258158746
  C           0.08816843375511      0.41916800350656      1.45776326847350
  C           0.16631005263456      0.59226579958604     -0.96930275060723
  C          -1.22404971584233      0.87616169192646      1.44381041845377
  C          -1.14323495431093      1.05203285808297     -0.98090344118219
  H           0.59464339829403      0.16391935566362      2.38794494596239
  H           0.73678563838436      0.47416782875892     -1.89010386117005
  H          -1.76980624443434      0.98685352931606      2.38453121558288
  H          -1.62220117594380      1.34921813838842     -1.91527894985989
  H          -3.68865023487106      1.55895315368196      1.07035595146289
  H          -3.70309740230744      1.48339805279916     -0.61598292444306
  O          -2.73240797150462      3.67205306226871     -1.91030492937757
  H          -1.80434157747472      3.94183042417959     -1.87492316324347
  H          -2.92898578475857      3.43556898146552     -0.98836313705110                               
*           

